28
trans-thioindigo (E), PubChem CID 5378456 3D conformer (MMFF94-level), C16H8O2S2
S      1.460400     1.625600    -0.000700
S     -1.460400    -1.625600    -0.000700
O      1.330200    -2.230500    -0.001200
O     -1.330200     2.230500    -0.001200
C      0.661300     0.087900    -0.001300
C     -0.661300    -0.087800    -0.001300
C      2.999200    -0.540600    -0.000600
C     -2.999200     0.540500    -0.000500
C      3.056000     0.851900    -0.000200
C     -3.055900    -0.851900    -0.000200
C      1.621400    -1.048500    -0.001300
C     -1.621500     1.048500    -0.001300
C      4.144700    -1.322800     0.000600
C     -4.144700     1.322900     0.000600
C      4.284300     1.497400     0.001100
C     -4.284200    -1.497400     0.001100
C      5.380400    -0.675400     0.001600
C     -5.380400     0.675400     0.001500
C      5.450000     0.725500     0.001900
C     -5.450000    -0.725500     0.001900
H      4.093900    -2.406300     0.000500
H     -4.093900     2.406300     0.000700
H      4.352500     2.580900     0.001400
H     -4.352400    -2.580900     0.001600
H      6.296600    -1.259400     0.002300
H     -6.296600     1.259300     0.002200
H      6.420200     1.214900     0.002900
H     -6.420300    -1.214900     0.002800
