15
PBE0/6-311G* optimized
N      2.46145377    -0.98174739    -0.10766307
C      1.24261013    -0.32134318    -0.06187968
C      1.19215732     1.07968473    -0.02457065
C     -0.03306101     1.72505664    -0.03945868
C     -1.22594724     1.01350630    -0.08954371
C     -1.17232877    -0.37892413    -0.12579880
O     -2.29006478    -1.14871640    -0.17390345
C      0.04807442    -1.04217967    -0.11186978
H      3.24126534    -0.46807064     0.26922408
H      2.44631361    -1.93566756     0.21455768
H      2.11421059     1.65335642     0.00832184
H     -0.06336286     2.81044161    -0.01043190
H     -2.18195119     1.53145937    -0.09970659
H     -3.06338555    -0.57955405    -0.18232577
H      0.04943519    -2.12763997    -0.14839981
