15
CACTUS 3D  https://cactus.nci.nih.gov/chemical/structure/Nc1cccc%28O%29c1/sdf?get3d=true
N      2.42090000    -0.99450000    -0.00410000
C      1.21200000    -0.29510000     0.00040000
C      1.21200000     1.09450000    -0.01130000
C      0.01640000     1.78590000    -0.00630000
C     -1.18250000     1.09840000     0.01030000
C     -1.18880000    -0.28920000     0.02160000
O     -2.36850000    -0.96370000     0.03800000
C      0.00890000    -0.98710000     0.01090000
H      3.26130000    -0.51030000    -0.01540000
H      2.42010000    -1.96450000     0.00820000
H      2.14750000     1.63410000    -0.02390000
H      0.01830000     2.86590000    -0.01500000
H     -2.11580000     1.64190000     0.01490000
H     -2.71810000    -1.16600000    -0.84060000
H      0.00590000    -2.06700000     0.01930000
