 argument  1 = opt.nw



============================== echo of input deck ==============================
echo
start pyrimidine_opt
title "pyrimidine geometry optimization, PBE0/6-311G* Cartesian"
scratch_dir /Users/bldrdge1/Downloads/repos/PlasMol/jobs/final/Step_1/pyrimidine
permanent_dir /Users/bldrdge1/Downloads/repos/PlasMol/jobs/final/Step_1/pyrimidine
memory total 2500 mb
charge 0

geometry units angstroms noautosym noautoz
  C     -0.00020000    -1.36330000    -0.00020000
  C     -1.19060000    -0.65340000    -0.00010000
  N     -1.15120000     0.66940000     0.00010000
  C      0.00020000     1.31060000     0.00010000
  N      1.15140000     0.66900000     0.00000000
  C      1.19040000    -0.65380000    -0.00020000
  H     -0.00040000    -2.44330000     0.00400000
  H     -2.13750000    -1.17270000    -0.00050000
  H      0.00040000     2.39060000    -0.00010000
  H      2.13720000    -1.17340000    -0.00020000
end

basis cartesian
  * library 6-311G*
end

dft
  xc pbe0
  mult 1
  grid fine
  iterations 100
  convergence energy 1.0e-7
end

driver
  maxiter 120
end

task dft optimize
================================================================================


                                         
                                         


             Northwest Computational Chemistry Package (NWChem) 7.2.3
             --------------------------------------------------------


                    Environmental Molecular Sciences Laboratory
                       Pacific Northwest National Laboratory
                                Richland, WA 99352

                              Copyright (c) 1994-2022
                       Pacific Northwest National Laboratory
                            Battelle Memorial Institute

             NWChem is an open-source computational chemistry package
                        distributed under the terms of the
                      Educational Community License (ECL) 2.0
             A copy of the license is included with this distribution
                              in the LICENSE.TXT file

                                  ACKNOWLEDGMENT
                                  --------------

            This software and its documentation were developed at the
            EMSL at Pacific Northwest National Laboratory, a multiprogram
            national laboratory, operated for the U.S. Department of Energy
            by Battelle under Contract Number DE-AC05-76RL01830. Support
            for this work was provided by the Department of Energy Office
            of Biological and Environmental Research, Office of Basic
            Energy Sciences, and the Office of Advanced Scientific Computing.


           Job information
           ---------------

    hostname        = CAS-X1HWX6T0HY
    program         = /opt/homebrew/bin/nwchem
    date            = Wed Sep 23 13:40:11 2026

    compiled        = Thu_Dec_26_16:10:57_2024
    source          = /private/tmp/nwchem-20241226-24138-dbs3bh/nwchem-7.2.3
    nwchem branch   = 7.2.3
    nwchem revision = d690e065
    ga revision     = 5.8.0
    use scalapack   = T
    input           = opt.nw
    prefix          = pyrimidine_opt.
    data base       = /Users/bldrdge1/Downloads/repos/PlasMol/jobs/final/Step_1/pyrimidine/pyrimidine_opt.db
    status          = startup
    nproc           =        1
    time left       =     -1s



           Memory information
           ------------------

    heap     =   81919996 doubles =    625.0 Mbytes
    stack    =   81920001 doubles =    625.0 Mbytes
    global   =  163840000 doubles =   1250.0 Mbytes (distinct from heap & stack)
    total    =  327679997 doubles =   2500.0 Mbytes
    verify   = yes
    hardfail = no 


           Directory information
           ---------------------

  0 permanent = /Users/bldrdge1/Downloads/repos/PlasMol/jobs/final/Step_1/pyrimidine
  0 scratch   = /Users/bldrdge1/Downloads/repos/PlasMol/jobs/final/Step_1/pyrimidine




                                NWChem Input Module
                                -------------------


             pyrimidine geometry optimization, PBE0/6-311G* Cartesian
             --------------------------------------------------------

 Scaling coordinates for geometry "geometry" by  1.889725989
 (inverse scale =  0.529177249)



                             Geometry "geometry" -> ""
                             -------------------------

 Output coordinates in angstroms (scale by  1.889725989 to convert to a.u.)

  No.       Tag          Charge          X              Y              Z
 ---- ---------------- ---------- -------------- -------------- --------------
    1 C                    6.0000    -0.00019762    -1.33498095    -0.00023571
    2 C                    6.0000    -1.19059762    -0.62508095    -0.00013571
    3 N                    7.0000    -1.15119762     0.69771905     0.00006429
    4 C                    6.0000     0.00020238     1.33891905     0.00006429
    5 N                    7.0000     1.15140238     0.69731905    -0.00003571
    6 C                    6.0000     1.19040238    -0.62548095    -0.00023571
    7 H                    1.0000    -0.00039762    -2.41498095     0.00396429
    8 H                    1.0000    -2.13749762    -1.14438095    -0.00053571
    9 H                    1.0000     0.00040238     2.41891905    -0.00013571
   10 H                    1.0000     2.13720238    -1.14508095    -0.00023571

      Atomic Mass 
      ----------- 

      C                 12.000000
      N                 14.003070
      H                  1.007825


 Effective nuclear repulsion energy (a.u.)     210.7036939715

            Nuclear Dipole moment (a.u.) 
            ----------------------------
        X                 Y               Z
 ---------------- ---------------- ----------------
     0.0000000000     0.0000000000     0.0000000000


            XYZ format geometry
            -------------------
    10
 geometry
 C                    -0.00019762    -1.33498095    -0.00023571
 C                    -1.19059762    -0.62508095    -0.00013571
 N                    -1.15119762     0.69771905     0.00006429
 C                     0.00020238     1.33891905     0.00006429
 N                     1.15140238     0.69731905    -0.00003571
 C                     1.19040238    -0.62548095    -0.00023571
 H                    -0.00039762    -2.41498095     0.00396429
 H                    -2.13749762    -1.14438095    -0.00053571
 H                     0.00040238     2.41891905    -0.00013571
 H                     2.13720238    -1.14508095    -0.00023571

 ==============================================================================
                                internuclear distances
 ------------------------------------------------------------------------------
       center one      |      center two      | atomic units |  angstroms
 ------------------------------------------------------------------------------
    2 C                |   1 C                |     2.61917  |     1.38601
    3 N                |   2 C                |     2.50084  |     1.32339
    4 C                |   3 N                |     2.49047  |     1.31790
    5 N                |   4 C                |     2.49051  |     1.31792
    6 C                |   1 C                |     2.61911  |     1.38597
    6 C                |   5 N                |     2.50082  |     1.32337
    7 H                |   1 C                |     2.04092  |     1.08001
    8 H                |   2 C                |     2.04081  |     1.07995
    9 H                |   4 C                |     2.04090  |     1.08000
   10 H                |   6 C                |     2.04092  |     1.08001
 ------------------------------------------------------------------------------
                         number of included internuclear distances:         10
 ==============================================================================



 ==============================================================================
                                 internuclear angles
 ------------------------------------------------------------------------------
        center 1       |       center 2       |       center 3       |  degrees
 ------------------------------------------------------------------------------
    2 C                |   1 C                |   6 C                |   118.40
    2 C                |   1 C                |   7 H                |   120.80
    6 C                |   1 C                |   7 H                |   120.80
    1 C                |   2 C                |   3 N                |   119.10
    1 C                |   2 C                |   8 H                |   120.45
    3 N                |   2 C                |   8 H                |   120.45
    2 C                |   3 N                |   4 C                |   120.82
    3 N                |   4 C                |   5 N                |   121.75
    3 N                |   4 C                |   9 H                |   119.12
    5 N                |   4 C                |   9 H                |   119.12
    4 C                |   5 N                |   6 C                |   120.82
    1 C                |   6 C                |   5 N                |   119.10
    1 C                |   6 C                |  10 H                |   120.45
    5 N                |   6 C                |  10 H                |   120.45
 ------------------------------------------------------------------------------
                            number of included internuclear angles:         14
 ==============================================================================



  library name resolved from: .nwchemrc
  library file name is: </opt/homebrew/Cellar/nwchem/7.2.3_1/share/nwchem/libraries/>
  


 Summary of "ao basis" -> "" (cartesian)
 ------------------------------------------------------------------------------
       Tag                 Description            Shells   Functions and Types
 ---------------- ------------------------------  ------  ---------------------
 *                          6-311G*                   on all atoms 




                           NWChem Geometry Optimization
                           ----------------------------




             pyrimidine geometry optimization, PBE0/6-311G* Cartesian


 maximum gradient threshold         (gmax) =   0.000450
 rms gradient threshold             (grms) =   0.000300
 maximum cartesian step threshold   (xmax) =   0.001800
 rms cartesian step threshold       (xrms) =   0.001200
 fixed trust radius                (trust) =   0.300000
 maximum step size to saddle      (sadstp) =   0.100000
 energy precision                  (eprec) =   5.0D-06
 maximum number of steps          (nptopt) =  120
 initial hessian option           (inhess) =    0
 line search option               (linopt) =    1
 hessian update option            (modupd) =    1
 saddle point option              (modsad) =    0
 initial eigen-mode to follow     (moddir) =    0
 initial variable to follow       (vardir) =    0
 follow first negative mode     (firstneg) =    T
 apply conjugacy                    (opcg) =    F
 source of zmatrix                         =           


          -------------------
          Energy Minimization
          -------------------


 Using diagonal initial Hessian 

          --------
          Step   0
          --------


                         Geometry "geometry" -> "geometry"
                         ---------------------------------

 Output coordinates in angstroms (scale by  1.889725989 to convert to a.u.)

  No.       Tag          Charge          X              Y              Z
 ---- ---------------- ---------- -------------- -------------- --------------
    1 C                    6.0000    -0.00019762    -1.33498095    -0.00023571
    2 C                    6.0000    -1.19059762    -0.62508095    -0.00013571
    3 N                    7.0000    -1.15119762     0.69771905     0.00006429
    4 C                    6.0000     0.00020238     1.33891905     0.00006429
    5 N                    7.0000     1.15140238     0.69731905    -0.00003571
    6 C                    6.0000     1.19040238    -0.62548095    -0.00023571
    7 H                    1.0000    -0.00039762    -2.41498095     0.00396429
    8 H                    1.0000    -2.13749762    -1.14438095    -0.00053571
    9 H                    1.0000     0.00040238     2.41891905    -0.00013571
   10 H                    1.0000     2.13720238    -1.14508095    -0.00023571

      Atomic Mass 
      ----------- 

      C                 12.000000
      N                 14.003070
      H                  1.007825


 Effective nuclear repulsion energy (a.u.)     210.7036939715

            Nuclear Dipole moment (a.u.) 
            ----------------------------
        X                 Y               Z
 ---------------- ---------------- ----------------
     0.0000000000     0.0000000000     0.0000000000


                                 NWChem DFT Module
                                 -----------------


             pyrimidine geometry optimization, PBE0/6-311G* Cartesian


                      Basis "ao basis" -> "ao basis" (cartesian)
                      -----
  C (Carbon)
  ----------
            Exponent  Coefficients 
       -------------- ---------------------------------------------------------
  1 S  4.56324000E+03  0.001967
  1 S  6.82024000E+02  0.015231
  1 S  1.54973000E+02  0.076127
  1 S  4.44553000E+01  0.260801
  1 S  1.30290000E+01  0.616462
  1 S  1.82773000E+00  0.221006

  2 S  2.09642000E+01  0.114660
  2 S  4.80331000E+00  0.919999
  2 S  1.45933000E+00 -0.003031

  3 P  2.09642000E+01  0.040249
  3 P  4.80331000E+00  0.237594
  3 P  1.45933000E+00  0.815854

  4 S  4.83456000E-01  1.000000

  5 P  4.83456000E-01  1.000000

  6 S  1.45585000E-01  1.000000

  7 P  1.45585000E-01  1.000000

  8 D  6.26000000E-01  1.000000

  N (Nitrogen)
  ------------
            Exponent  Coefficients 
       -------------- ---------------------------------------------------------
  1 S  6.29348000E+03  0.001970
  1 S  9.49044000E+02  0.014961
  1 S  2.18776000E+02  0.073501
  1 S  6.36916000E+01  0.248937
  1 S  1.88282000E+01  0.602460
  1 S  2.72023000E+00  0.256202

  2 S  3.06331000E+01  0.111906
  2 S  7.02614000E+00  0.921666
  2 S  2.11205000E+00 -0.002569

  3 P  3.06331000E+01  0.038312
  3 P  7.02614000E+00  0.237403
  3 P  2.11205000E+00  0.817592

  4 S  6.84009000E-01  1.000000

  5 P  6.84009000E-01  1.000000

  6 S  2.00878000E-01  1.000000

  7 P  2.00878000E-01  1.000000

  8 D  9.13000000E-01  1.000000

  H (Hydrogen)
  ------------
            Exponent  Coefficients 
       -------------- ---------------------------------------------------------
  1 S  3.38650000E+01  0.025494
  1 S  5.09479000E+00  0.190373
  1 S  1.15879000E+00  0.852161

  2 S  3.25840000E-01  1.000000

  3 S  1.02741000E-01  1.000000



 Summary of "ao basis" -> "ao basis" (cartesian)
 ------------------------------------------------------------------------------
       Tag                 Description            Shells   Functions and Types
 ---------------- ------------------------------  ------  ---------------------
 C                          6-311G*                  8       19   4s3p1d
 N                          6-311G*                  8       19   4s3p1d
 H                          6-311G*                  3        3   3s




 Summary of "ao basis" -> "ao basis" (cartesian)
 ------------------------------------------------------------------------------
       Tag                 Description            Shells   Functions and Types
 ---------------- ------------------------------  ------  ---------------------
 C                          6-311G*                  8       19   4s3p1d
 N                          6-311G*                  8       19   4s3p1d
 H                          6-311G*                  3        3   3s


  Caching 1-el integrals 

            General Information
            -------------------
          SCF calculation type: DFT
          Wavefunction type:  closed shell.
          No. of atoms     :    10
          No. of electrons :    42
           Alpha electrons :    21
            Beta electrons :    21
          Charge           :     0
          Spin multiplicity:     1
          Use of symmetry is: off; symmetry adaption is: off
          Maximum number of iterations: 100
          AO basis - number of functions:   126
                     number of shells:    60
          Convergence on energy requested:  1.00D-07
          Convergence on density requested:  1.00D-05
          Convergence on gradient requested:  5.00D-04

              XC Information
              --------------
                         PBE0 Method XC Functional
                     Hartree-Fock (Exact) Exchange  0.250          
          PerdewBurkeErnzerhof Exchange Functional  0.750          
            Perdew 1991 LDA Correlation Functional  1.000 local    
           PerdewBurkeErnz. Correlation Functional  1.000 non-local

             Grid Information
             ----------------
          Grid used for XC integration:  fine      
          Radial quadrature: Mura-Knowles        
          Angular quadrature: Lebedev. 
          Tag              B.-S. Rad. Rad. Pts. Rad. Cut. Ang. Pts.
          ---              ---------- --------- --------- ---------
          C                   0.70       70          11.0       590
          N                   0.65       70          11.0       590
          H                   0.35       60          13.0       590
          Grid pruning is: on 
          Number of quadrature shells:   660
          Spatial weights used:  Erf1

          Convergence Information
          -----------------------
          Convergence aids based upon iterative change in 
          total energy or number of iterations. 
          Levelshifting, if invoked, occurs when the 
          HOMO/LUMO gap drops below (HL_TOL):  1.00D-02
          DIIS, if invoked, will attempt to extrapolate 
          using up to (NFOCK): 10 stored Fock matrices.

                    Damping( 0%)  Levelshifting(0.5)       DIIS
                  --------------- ------------------- ---------------
          dE  on:    start            ASAP                start   
          dE off:    2 iters        100 iters           100 iters 


      Screening Tolerance Information
      -------------------------------
          Density screening/tol_rho:  1.00D-10
          AO Gaussian exp screening on grid/accAOfunc:  16
          CD Gaussian exp screening on grid/accCDfunc:  20
          XC Gaussian exp screening on grid/accXCfunc:  20
          Schwarz screening/accCoul:  1.00D-08


      Superposition of Atomic Density Guess
      -------------------------------------

 Sum of atomic energies:        -261.28680843

      Non-variational initial energy
      ------------------------------

 Total energy =    -265.302792
 1-e energy   =    -769.210960
 2-e energy   =     293.204474
 HOMO         =      -0.275309
 LUMO         =      -0.039478

  WARNING: movecs_in_org=atomic not equal to movecs_in=/Users/bldrdge1/Downloads/repos/PlasMol/jobs/final/Step_1/pyrimidine/pyrimidine_opt.movecs
   Time after variat. SCF:      0.5
   Time prior to 1st pass:      0.5

 Integral file          = /Users/bldrdge1/Downloads/repos/PlasMol/jobs/final/Step_1/pyrimidine/pyrimidine_opt.aoints.0
 Record size in doubles =  65536        No. of integs per rec  =  43688
 Max. records in memory =    995        Max. records in file   = 158829
 No. of bits per label  =      8        No. of bits per value  =     64


 #quartets = 1.348D+06 #integrals = 2.057D+07 #direct =  0.0% #cached =100.0%

  avail0,avail1,avail0-avail1                 83575                83575                    0
  avail0,avail1,avail0-avail1                 83575                83582                   -7
  avail0,avail1,avail0-avail1                 83575                83590                  -15
  avail0,avail1,avail0-avail1                 83575                83589                  -14

 Grid_pts file          = /Users/bldrdge1/Downloads/repos/PlasMol/jobs/final/Step_1/pyrimidine/pyrimidine_opt.gridpts.0
 Record size in doubles =  12289        No. of grid_pts per rec  =   3070
 Max. records in memory =    141        Max. recs in file   =    846824


           Memory utilization after 1st SCF pass: 
           Heap Space remaining (MW):       14.94            14938436
          Stack Space remaining (MW):       81.92            81919076

   convergence    iter        energy       DeltaE   RMS-Dens  Diis-err    time
 ---------------- ----- ----------------- --------- --------- ---------  ------
 d= 0,ls=0.0,diis     1   -263.9774549287 -4.75D+02  6.74D-03  9.77D-01     3.1
 d= 0,ls=0.0,diis     2   -263.9838955237 -6.44D-03  4.33D-03  7.90D-01     4.4
 d= 0,ls=0.0,diis     3   -264.0528308540 -6.89D-02  1.50D-03  1.24D-01     5.8
 d= 0,ls=0.0,diis     4   -264.0638939981 -1.11D-02  5.80D-04  1.03D-02     7.2
 d= 0,ls=0.0,diis     5   -264.0650649365 -1.17D-03  1.65D-04  9.66D-04     8.6
  Resetting Diis
 d= 0,ls=0.0,diis     6   -264.0651957251 -1.31D-04  3.13D-05  3.72D-05    10.0
 d= 0,ls=0.0,diis     7   -264.0652002327 -4.51D-06  1.37D-05  1.59D-06    11.6
 d= 0,ls=0.0,diis     8   -264.0652001049  1.28D-07  7.51D-06  2.84D-06    13.1
 d= 0,ls=0.0,diis     9   -264.0652004127 -3.08D-07  1.02D-06  5.50D-08    14.6
 d= 0,ls=0.0,diis    10   -264.0652004175 -4.87D-09  4.56D-07  6.10D-09    16.0


         Total DFT energy =     -264.065200417518
      One electron energy =     -773.251768545647
           Coulomb energy =      335.226444797565
    Exchange-Corr. energy =      -36.743570640911
 Nuclear repulsion energy =      210.703693971475

 Numeric. integr. density =       42.000003011621

     Total iterative time =     15.5s



                       DFT Final Molecular Orbital Analysis
                       ------------------------------------

 Vector    1  Occ=2.000000D+00  E=-1.438607D+01
              MO Center= -3.5D-01,  7.0D-01,  3.0D-05, r^2= 1.2D+00
   Bfn.  Coefficient  Atom+Function         Bfn.  Coefficient  Atom+Function  
  ----- ------------  ---------------      ----- ------------  ---------------
    39      0.451374   3 N  s                40      0.374124   3 N  s         
    77     -0.328394   5 N  s                78     -0.272186   5 N  s         

 Vector    2  Occ=2.000000D+00  E=-1.438606D+01
              MO Center=  3.5D-01,  7.0D-01, -1.1D-06, r^2= 1.2D+00
   Bfn.  Coefficient  Atom+Function         Bfn.  Coefficient  Atom+Function  
  ----- ------------  ---------------      ----- ------------  ---------------
    77      0.451372   5 N  s                78      0.374138   5 N  s         
    39      0.328391   3 N  s                40      0.272205   3 N  s         

 Vector    3  Occ=2.000000D+00  E=-1.029497D+01
              MO Center=  2.0D-04,  1.3D+00,  6.4D-05, r^2= 2.8D-02
   Bfn.  Coefficient  Atom+Function         Bfn.  Coefficient  Atom+Function  
  ----- ------------  ---------------      ----- ------------  ---------------
    58      0.563877   4 C  s                59      0.460049   4 C  s         

 Vector    4  Occ=2.000000D+00  E=-1.028299D+01
              MO Center=  1.6D-01, -6.3D-01, -1.9D-04, r^2= 1.4D+00
   Bfn.  Coefficient  Atom+Function         Bfn.  Coefficient  Atom+Function  
  ----- ------------  ---------------      ----- ------------  ---------------
    96      0.424050   6 C  s                20      0.371593   2 C  s         
    97      0.345945   6 C  s                21      0.303142   2 C  s         

 Vector    5  Occ=2.000000D+00  E=-1.028299D+01
              MO Center= -1.6D-01, -6.3D-01, -1.8D-04, r^2= 1.4D+00
   Bfn.  Coefficient  Atom+Function         Bfn.  Coefficient  Atom+Function  
  ----- ------------  ---------------      ----- ------------  ---------------
    20      0.424073   2 C  s                96     -0.371620   6 C  s         
    21      0.346018   2 C  s                97     -0.303226   6 C  s         

 Vector    6  Occ=2.000000D+00  E=-1.024860D+01
              MO Center= -2.0D-04, -1.3D+00, -2.4D-04, r^2= 2.8D-02
   Bfn.  Coefficient  Atom+Function         Bfn.  Coefficient  Atom+Function  
  ----- ------------  ---------------      ----- ------------  ---------------
     1      0.563765   1 C  s                 2      0.459916   1 C  s         

 Vector    7  Occ=2.000000D+00  E=-1.028624D+00
              MO Center=  4.2D-05,  4.4D-01, -3.2D-05, r^2= 1.5D+00
   Bfn.  Coefficient  Atom+Function         Bfn.  Coefficient  Atom+Function  
  ----- ------------  ---------------      ----- ------------  ---------------
    44      0.265939   3 N  s                82      0.265929   5 N  s         
    63      0.241495   4 C  s                48      0.208785   3 N  s         
    86      0.208781   5 N  s                25      0.154218   2 C  s         
   101      0.154218   6 C  s                40     -0.100143   3 N  s         
    78     -0.100140   5 N  s                 6      0.093774   1 C  s         

 Vector    8  Occ=2.000000D+00  E=-9.198712D-01
              MO Center=  8.9D-05,  3.4D-01, -4.9D-05, r^2= 1.9D+00
   Bfn.  Coefficient  Atom+Function         Bfn.  Coefficient  Atom+Function  
  ----- ------------  ---------------      ----- ------------  ---------------
    44      0.319606   3 N  s                82     -0.319606   5 N  s         
    48      0.218383   3 N  s                86     -0.218387   5 N  s         
    25      0.195841   2 C  s               101     -0.195866   6 C  s         
    40     -0.116886   3 N  s                78      0.116886   5 N  s         
    64     -0.111946   4 C  px               60     -0.076088   4 C  px        

 Vector    9  Occ=2.000000D+00  E=-8.289795D-01
              MO Center= -9.0D-05, -4.4D-01,  7.7D-05, r^2= 2.3D+00
   Bfn.  Coefficient  Atom+Function         Bfn.  Coefficient  Atom+Function  
  ----- ------------  ---------------      ----- ------------  ---------------
     6      0.329189   1 C  s                63     -0.242773   4 C  s         
    25      0.214184   2 C  s               101      0.214162   6 C  s         
    10      0.143010   1 C  s                 2     -0.124937   1 C  s         
    67     -0.113784   4 C  s                29      0.104281   2 C  s         
   105      0.104269   6 C  s                44     -0.092801   3 N  s         

 Vector   10  Occ=2.000000D+00  E=-6.874015D-01
              MO Center= -7.2D-04, -2.1D-01, -1.4D-04, r^2= 3.0D+00
   Bfn.  Coefficient  Atom+Function         Bfn.  Coefficient  Atom+Function  
  ----- ------------  ---------------      ----- ------------  ---------------
    25      0.269742   2 C  s               101     -0.269541   6 C  s         
    29      0.166044   2 C  s               105     -0.165870   6 C  s         
    64      0.161115   4 C  px               44     -0.147900   3 N  s         
    82      0.148119   5 N  s                 7     -0.134128   1 C  px        
    48     -0.123081   3 N  s                86      0.123251   5 N  s         

 Vector   11  Occ=2.000000D+00  E=-6.852810D-01
              MO Center=  6.5D-04,  2.3D-02,  2.3D-04, r^2= 3.0D+00
   Bfn.  Coefficient  Atom+Function         Bfn.  Coefficient  Atom+Function  
  ----- ------------  ---------------      ----- ------------  ---------------
    63      0.274278   4 C  s                 6      0.259414   1 C  s         
    10      0.206341   1 C  s                67      0.171022   4 C  s         
    46      0.124238   3 N  py               84      0.124460   5 N  py        
    27     -0.116456   2 C  py              103     -0.116322   6 C  py        
    44     -0.106313   3 N  s                82     -0.106006   5 N  s         

 Vector   12  Occ=2.000000D+00  E=-5.664245D-01
              MO Center= -4.4D-05, -6.1D-02, -1.3D-04, r^2= 4.0D+00
   Bfn.  Coefficient  Atom+Function         Bfn.  Coefficient  Atom+Function  
  ----- ------------  ---------------      ----- ------------  ---------------
    26      0.166119   2 C  px              102     -0.166100   6 C  px        
    65     -0.162219   4 C  py               29     -0.144111   2 C  s         
   105     -0.144135   6 C  s                67     -0.117475   4 C  s         
   119     -0.106471   8 H  s               125     -0.106466  10 H  s         
    22      0.103050   2 C  px               98     -0.103038   6 C  px        

 Vector   13  Occ=2.000000D+00  E=-5.420045D-01
              MO Center= -2.0D-06, -8.4D-02, -9.8D-05, r^2= 2.6D+00
   Bfn.  Coefficient  Atom+Function         Bfn.  Coefficient  Atom+Function  
  ----- ------------  ---------------      ----- ------------  ---------------
    27      0.183929   2 C  py              103     -0.183923   6 C  py        
    64      0.178334   4 C  px                7      0.170452   1 C  px        
    46     -0.170314   3 N  py               84      0.170344   5 N  py        
    23      0.124316   2 C  py               60      0.124171   4 C  px        
    99     -0.124311   6 C  py                3      0.114557   1 C  px        

 Vector   14  Occ=2.000000D+00  E=-4.889634D-01
              MO Center= -9.9D-05, -7.1D-01,  9.5D-04, r^2= 3.8D+00
   Bfn.  Coefficient  Atom+Function         Bfn.  Coefficient  Atom+Function  
  ----- ------------  ---------------      ----- ------------  ---------------
     8      0.265898   1 C  py              116     -0.186652   7 H  s         
    12      0.172863   1 C  py                4      0.168723   1 C  py        
    65      0.163723   4 C  py              115     -0.155327   7 H  s         
   122      0.124552   9 H  s                44     -0.115443   3 N  s         
    82     -0.115452   5 N  s                25      0.111322   2 C  s         

 Vector   15  Occ=2.000000D+00  E=-4.513975D-01
              MO Center=  1.5D-05,  2.8D-01,  2.9D-04, r^2= 2.4D+00
   Bfn.  Coefficient  Atom+Function         Bfn.  Coefficient  Atom+Function  
  ----- ------------  ---------------      ----- ------------  ---------------
    47      0.187449   3 N  pz               85      0.187446   5 N  pz        
    66      0.186005   4 C  pz               28      0.145188   2 C  pz        
   104      0.145190   6 C  pz               51      0.133890   3 N  pz        
    89      0.133889   5 N  pz               70      0.123769   4 C  pz        
     9      0.119198   1 C  pz               43      0.118485   3 N  pz        

 Vector   16  Occ=2.000000D+00  E=-4.456017D-01
              MO Center= -8.7D-03, -6.5D-01, -2.2D-04, r^2= 3.2D+00
   Bfn.  Coefficient  Atom+Function         Bfn.  Coefficient  Atom+Function  
  ----- ------------  ---------------      ----- ------------  ---------------
    26      0.231188   2 C  px              102      0.230087   6 C  px        
     7     -0.177249   1 C  px               22      0.149635   2 C  px        
    98      0.148979   6 C  px              119     -0.141446   8 H  s         
   125      0.139856  10 H  s                30      0.135941   2 C  px        
   106      0.135335   6 C  px                3     -0.122294   1 C  px        

 Vector   17  Occ=2.000000D+00  E=-4.452941D-01
              MO Center=  8.7D-03,  1.1D-01, -2.7D-04, r^2= 4.1D+00
   Bfn.  Coefficient  Atom+Function         Bfn.  Coefficient  Atom+Function  
  ----- ------------  ---------------      ----- ------------  ---------------
    65      0.223762   4 C  py               61      0.141698   4 C  py        
    69      0.129959   4 C  py               10      0.128523   1 C  s         
    45     -0.126364   3 N  px               83      0.125439   5 N  px        
   122      0.125388   9 H  s               103      0.124682   6 C  py        
    27      0.124054   2 C  py              125     -0.120854  10 H  s         

 Vector   18  Occ=2.000000D+00  E=-3.354921D-01
              MO Center=  4.1D-05,  1.7D-01, -2.6D-05, r^2= 2.6D+00
   Bfn.  Coefficient  Atom+Function         Bfn.  Coefficient  Atom+Function  
  ----- ------------  ---------------      ----- ------------  ---------------
    47      0.233947   3 N  pz               85     -0.233921   5 N  pz        
    51      0.208683   3 N  pz               89     -0.208660   5 N  pz        
    28      0.193918   2 C  pz              104     -0.193956   6 C  pz        
    32      0.167407   2 C  pz              108     -0.167434   6 C  pz        
    43      0.150020   3 N  pz               81     -0.150003   5 N  pz        

 Vector   19  Occ=2.000000D+00  E=-3.100766D-01
              MO Center=  4.1D-05,  6.5D-01,  7.8D-04, r^2= 3.1D+00
   Bfn.  Coefficient  Atom+Function         Bfn.  Coefficient  Atom+Function  
  ----- ------------  ---------------      ----- ------------  ---------------
    48      0.198994   3 N  s                86      0.198981   5 N  s         
    50      0.193448   3 N  py               88      0.193397   5 N  py        
    46      0.178105   3 N  py               84      0.178059   5 N  py        
    44      0.170052   3 N  s                82      0.170046   5 N  s         
    49     -0.162838   3 N  px               87      0.162886   5 N  px        

 Vector   20  Occ=2.000000D+00  E=-3.059774D-01
              MO Center= -7.2D-05, -2.9D-01, -1.0D-03, r^2= 2.7D+00
   Bfn.  Coefficient  Atom+Function         Bfn.  Coefficient  Atom+Function  
  ----- ------------  ---------------      ----- ------------  ---------------
     9      0.264135   1 C  pz               13      0.249242   1 C  pz        
    66     -0.221415   4 C  pz               70     -0.196393   4 C  pz        
     5      0.162834   1 C  pz               28      0.149437   2 C  pz        
   104      0.149386   6 C  pz               62     -0.135413   4 C  pz        
    32      0.116663   2 C  pz              108      0.116613   6 C  pz        

 Vector   21  Occ=2.000000D+00  E=-2.545053D-01
              MO Center=  1.9D-04,  5.2D-01, -5.3D-05, r^2= 3.1D+00
   Bfn.  Coefficient  Atom+Function         Bfn.  Coefficient  Atom+Function  
  ----- ------------  ---------------      ----- ------------  ---------------
    49      0.280507   3 N  px               87      0.280556   5 N  px        
    45      0.256776   3 N  px               83      0.256824   5 N  px        
    11      0.217255   1 C  px               41      0.176561   3 N  px        
    79      0.176592   5 N  px               64     -0.127678   4 C  px        
     7      0.115648   1 C  px               50     -0.104627   3 N  py        

 Vector   22  Occ=0.000000D+00  E=-3.938636D-02
              MO Center= -1.1D-04, -1.5D-01, -8.0D-05, r^2= 3.1D+00
   Bfn.  Coefficient  Atom+Function         Bfn.  Coefficient  Atom+Function  
  ----- ------------  ---------------      ----- ------------  ---------------
    32      0.423604   2 C  pz              108     -0.423458   6 C  pz        
    51     -0.358581   3 N  pz               89      0.358671   5 N  pz        
    28      0.246938   2 C  pz              104     -0.246868   6 C  pz        
    47     -0.202939   3 N  pz               85      0.202994   5 N  pz        
    24      0.155153   2 C  pz              100     -0.155107   6 C  pz        

 Vector   23  Occ=0.000000D+00  E=-2.828658D-02
              MO Center=  7.0D-05,  6.7D-02, -6.4D-04, r^2= 3.2D+00
   Bfn.  Coefficient  Atom+Function         Bfn.  Coefficient  Atom+Function  
  ----- ------------  ---------------      ----- ------------  ---------------
    13      0.525982   1 C  pz               70      0.459688   4 C  pz        
    66      0.290240   4 C  pz               32     -0.284812   2 C  pz        
   108     -0.285029   6 C  pz                9      0.242404   1 C  pz        
    51     -0.200691   3 N  pz               89     -0.200507   5 N  pz        
    62      0.176888   4 C  pz                5      0.161459   1 C  pz        

 Vector   24  Occ=0.000000D+00  E= 5.850444D-02
              MO Center= -1.1D-04, -2.0D+00,  2.6D-03, r^2= 6.8D+00
   Bfn.  Coefficient  Atom+Function         Bfn.  Coefficient  Atom+Function  
  ----- ------------  ---------------      ----- ------------  ---------------
   117      1.246418   7 H  s                10     -0.938758   1 C  s         
   120      0.907974   8 H  s               126      0.908089  10 H  s         
    29     -0.635168   2 C  s               105     -0.635253   6 C  s         
    12      0.502222   1 C  py               30      0.332476   2 C  px        
   106     -0.332501   6 C  px              123      0.280657   9 H  s         

 Vector   25  Occ=0.000000D+00  E= 9.400027D-02
              MO Center= -1.3D-04, -1.4D+00, -4.7D-04, r^2= 9.3D+00
   Bfn.  Coefficient  Atom+Function         Bfn.  Coefficient  Atom+Function  
  ----- ------------  ---------------      ----- ------------  ---------------
   120      1.545048   8 H  s               126     -1.545065  10 H  s         
    29     -1.189090   2 C  s               105      1.189014   6 C  s         
    30      0.660480   2 C  px              106      0.660431   6 C  px        
    31      0.347338   2 C  py              107     -0.347593   6 C  py        
    11     -0.325174   1 C  px               25     -0.131055   2 C  s         

 Vector   26  Occ=0.000000D+00  E= 1.008750D-01
              MO Center=  3.7D-04,  2.4D+00,  4.5D-04, r^2= 5.8D+00
   Bfn.  Coefficient  Atom+Function         Bfn.  Coefficient  Atom+Function  
  ----- ------------  ---------------      ----- ------------  ---------------
   123      2.046280   9 H  s                67     -1.162611   4 C  s         
    69     -1.039027   4 C  py              117     -0.757781   7 H  s         
    12     -0.504606   1 C  py               48     -0.269810   3 N  s         
    86     -0.269801   5 N  s                10      0.259785   1 C  s         
    63     -0.173916   4 C  s                65     -0.161807   4 C  py        

 Vector   27  Occ=0.000000D+00  E= 1.234679D-01
              MO Center= -5.4D-04, -1.7D+00,  2.6D-03, r^2= 9.0D+00
   Bfn.  Coefficient  Atom+Function         Bfn.  Coefficient  Atom+Function  
  ----- ------------  ---------------      ----- ------------  ---------------
   117      1.816281   7 H  s                12      1.267126   1 C  py        
   120     -1.264902   8 H  s               126     -1.264557  10 H  s         
    10     -0.706609   1 C  s                30     -0.670745   2 C  px        
    31     -0.672177   2 C  py              106      0.670466   6 C  px        
   107     -0.672282   6 C  py              123      0.628905   9 H  s         

 Vector   28  Occ=0.000000D+00  E= 1.383215D-01
              MO Center=  3.0D-05,  3.9D-03, -9.4D-04, r^2= 3.5D+00
   Bfn.  Coefficient  Atom+Function         Bfn.  Coefficient  Atom+Function  
  ----- ------------  ---------------      ----- ------------  ---------------
    13      0.633883   1 C  pz               32     -0.576935   2 C  pz        
   108     -0.576975   6 C  pz               70     -0.539740   4 C  pz        
    51      0.499803   3 N  pz               89      0.499815   5 N  pz        
    47      0.211458   3 N  pz               85      0.211461   5 N  pz        
     9      0.201301   1 C  pz               66     -0.196029   4 C  pz        

 Vector   29  Occ=0.000000D+00  E= 2.108596D-01
              MO Center= -7.9D-05, -5.2D-02,  3.0D-04, r^2= 4.9D+00
   Bfn.  Coefficient  Atom+Function         Bfn.  Coefficient  Atom+Function  
  ----- ------------  ---------------      ----- ------------  ---------------
    48      2.474631   3 N  s                86      2.474476   5 N  s         
    67     -1.862675   4 C  s                29     -1.188538   2 C  s         
    31     -1.190987   2 C  py              105     -1.188419   6 C  s         
   107     -1.190892   6 C  py               69      1.141483   4 C  py        
    10     -0.900152   1 C  s                50     -0.556029   3 N  py        

 Vector   30  Occ=0.000000D+00  E= 2.160064D-01
              MO Center=  5.4D-05,  9.5D-02, -1.0D-04, r^2= 5.3D+00
   Bfn.  Coefficient  Atom+Function         Bfn.  Coefficient  Atom+Function  
  ----- ------------  ---------------      ----- ------------  ---------------
    48      2.131427   3 N  s                86     -2.131512   5 N  s         
    29     -1.596789   2 C  s               105      1.596638   6 C  s         
    68      1.217286   4 C  px               11     -0.859908   1 C  px        
    31     -0.851790   2 C  py              107      0.852047   6 C  py        
    30     -0.596446   2 C  px              106     -0.595958   6 C  px        

 Vector   31  Occ=0.000000D+00  E= 2.751219D-01
              MO Center=  6.2D-05, -8.9D-01, -2.1D-03, r^2= 4.5D+00
   Bfn.  Coefficient  Atom+Function         Bfn.  Coefficient  Atom+Function  
  ----- ------------  ---------------      ----- ------------  ---------------
    10      4.075674   1 C  s                29     -2.660918   2 C  s         
   105     -2.660785   6 C  s                12      2.451796   1 C  py        
    67     -2.097118   4 C  s                30     -1.804609   2 C  px        
   106      1.804716   6 C  px               48      1.374515   3 N  s         
    86      1.375112   5 N  s               116      0.763100   7 H  s         

 Vector   32  Occ=0.000000D+00  E= 3.010683D-01
              MO Center= -1.1D-04,  3.4D-01, -6.7D-05, r^2= 6.0D+00
   Bfn.  Coefficient  Atom+Function         Bfn.  Coefficient  Atom+Function  
  ----- ------------  ---------------      ----- ------------  ---------------
    68      2.573695   4 C  px               29      1.750116   2 C  s         
   105     -1.751295   6 C  s                11      1.177423   1 C  px        
    50      1.065614   3 N  py               88     -1.065816   5 N  py        
    48      0.882020   3 N  s                86     -0.881443   5 N  s         
    31      0.654803   2 C  py              107     -0.654725   6 C  py        

 Vector   33  Occ=0.000000D+00  E= 3.354148D-01
              MO Center=  3.7D-04, -3.7D-01, -7.5D-05, r^2= 6.0D+00
   Bfn.  Coefficient  Atom+Function         Bfn.  Coefficient  Atom+Function  
  ----- ------------  ---------------      ----- ------------  ---------------
    11      3.092103   1 C  px               31     -2.098626   2 C  py        
   107      2.098511   6 C  py               30      1.446256   2 C  px        
   106      1.447931   6 C  px               68     -1.350213   4 C  px        
    29      0.992640   2 C  s               105     -0.993991   6 C  s         
    50     -0.786276   3 N  py               88      0.786511   5 N  py        

 Vector   34  Occ=0.000000D+00  E= 3.402087D-01
              MO Center= -4.2D-04, -6.4D-01,  3.2D-03, r^2= 5.2D+00
   Bfn.  Coefficient  Atom+Function         Bfn.  Coefficient  Atom+Function  
  ----- ------------  ---------------      ----- ------------  ---------------
    10      4.860175   1 C  s                29     -2.397729   2 C  s         
   105     -2.397332   6 C  s                12      2.214632   1 C  py        
    30     -1.934137   2 C  px              106      1.933607   6 C  px        
    67     -1.418913   4 C  s               117      1.205204   7 H  s         
    48      0.836178   3 N  s                86      0.836693   5 N  s         

 Vector   35  Occ=0.000000D+00  E= 3.628718D-01
              MO Center=  7.7D-05,  3.1D-01, -1.9D-03, r^2= 3.9D+00
   Bfn.  Coefficient  Atom+Function         Bfn.  Coefficient  Atom+Function  
  ----- ------------  ---------------      ----- ------------  ---------------
    67      3.380460   4 C  s                29     -2.707315   2 C  s         
   105     -2.707975   6 C  s                12      1.239647   1 C  py        
    50     -1.178070   3 N  py               88     -1.178286   5 N  py        
    31     -1.167107   2 C  py              107     -1.167086   6 C  py        
    69     -1.018852   4 C  py               10      0.863627   1 C  s         

 Vector   36  Occ=0.000000D+00  E= 3.836407D-01
              MO Center= -8.8D-06, -3.0D-01,  2.4D-03, r^2= 4.0D+00
   Bfn.  Coefficient  Atom+Function         Bfn.  Coefficient  Atom+Function  
  ----- ------------  ---------------      ----- ------------  ---------------
    70      0.576702   4 C  pz               32      0.533467   2 C  pz        
   108      0.533516   6 C  pz               28     -0.448355   2 C  pz        
   104     -0.448372   6 C  pz               66     -0.427447   4 C  pz        
     9     -0.392379   1 C  pz               13      0.310408   1 C  pz        
    51     -0.136417   3 N  pz               89     -0.136431   5 N  pz        

 Vector   37  Occ=0.000000D+00  E= 4.052935D-01
              MO Center= -1.2D-04, -8.9D-01, -1.2D-05, r^2= 4.1D+00
   Bfn.  Coefficient  Atom+Function         Bfn.  Coefficient  Atom+Function  
  ----- ------------  ---------------      ----- ------------  ---------------
    29      2.835746   2 C  s               105     -2.835535   6 C  s         
    11      1.626806   1 C  px               30      1.269856   2 C  px        
   106      1.270255   6 C  px               31     -0.873156   2 C  py        
   107      0.872939   6 C  py              119     -0.703136   8 H  s         
   125      0.703145  10 H  s                68      0.533195   4 C  px        

 Vector   38  Occ=0.000000D+00  E= 4.189303D-01
              MO Center=  1.5D-04,  9.3D-01, -1.1D-04, r^2= 4.8D+00
   Bfn.  Coefficient  Atom+Function         Bfn.  Coefficient  Atom+Function  
  ----- ------------  ---------------      ----- ------------  ---------------
   122      1.273358   9 H  s                29      0.906270   2 C  s         
    69     -0.904166   4 C  py              105      0.907267   6 C  s         
   123     -0.674930   9 H  s                67      0.646146   4 C  s         
    10     -0.568231   1 C  s                30      0.509767   2 C  px        
    48     -0.508912   3 N  s                86     -0.508779   5 N  s         

 Vector   39  Occ=0.000000D+00  E= 4.384482D-01
              MO Center= -1.1D-04, -7.4D-01,  9.4D-05, r^2= 4.5D+00
   Bfn.  Coefficient  Atom+Function         Bfn.  Coefficient  Atom+Function  
  ----- ------------  ---------------      ----- ------------  ---------------
    10      1.971238   1 C  s               116     -0.764926   7 H  s         
    29     -0.609260   2 C  s               105     -0.609344   6 C  s         
   119      0.560350   8 H  s               125      0.560385  10 H  s         
    12      0.532770   1 C  py              122     -0.527629   9 H  s         
   120     -0.474146   8 H  s               126     -0.474338  10 H  s         

 Vector   40  Occ=0.000000D+00  E= 4.463268D-01
              MO Center=  1.3D-04,  5.3D-01,  3.4D-04, r^2= 4.5D+00
   Bfn.  Coefficient  Atom+Function         Bfn.  Coefficient  Atom+Function  
  ----- ------------  ---------------      ----- ------------  ---------------
    70      1.172789   4 C  pz               66     -0.714390   4 C  pz        
    13     -0.699676   1 C  pz                9      0.470989   1 C  pz        
    62     -0.176566   4 C  pz               28      0.138810   2 C  pz        
   104      0.138910   6 C  pz                5      0.111753   1 C  pz        
    51     -0.098914   3 N  pz               89     -0.098904   5 N  pz        

 Vector   41  Occ=0.000000D+00  E= 4.564564D-01
              MO Center= -2.1D-04, -7.0D-01, -5.0D-04, r^2= 4.4D+00
   Bfn.  Coefficient  Atom+Function         Bfn.  Coefficient  Atom+Function  
  ----- ------------  ---------------      ----- ------------  ---------------
    32      1.024830   2 C  pz              108     -1.024786   6 C  pz        
    28     -0.625714   2 C  pz              104      0.625671   6 C  pz        
    24     -0.153948   2 C  pz              100      0.153939   6 C  pz        
    16      0.082851   1 C  dxz              51     -0.080610   3 N  pz        
    89      0.080623   5 N  pz               35     -0.071453   2 C  dxz       

 Vector   42  Occ=0.000000D+00  E= 4.960883D-01
              MO Center=  1.9D-04,  5.6D-01, -8.0D-05, r^2= 3.9D+00
   Bfn.  Coefficient  Atom+Function         Bfn.  Coefficient  Atom+Function  
  ----- ------------  ---------------      ----- ------------  ---------------
    11      1.288972   1 C  px               31     -1.204293   2 C  py        
   107      1.204195   6 C  py               48      1.109101   3 N  s         
    86     -1.109075   5 N  s                68      1.009021   4 C  px        
    64     -0.511293   4 C  px               25      0.488692   2 C  s         
   101     -0.488633   6 C  s               120      0.315183   8 H  s         

 Vector   43  Occ=0.000000D+00  E= 5.364810D-01
              MO Center= -1.2D-04, -8.6D-01, -1.7D-03, r^2= 4.6D+00
   Bfn.  Coefficient  Atom+Function         Bfn.  Coefficient  Atom+Function  
  ----- ------------  ---------------      ----- ------------  ---------------
    13      1.677540   1 C  pz               32     -1.117811   2 C  pz        
   108     -1.117831   6 C  pz                9     -0.669012   1 C  pz        
    70      0.505404   4 C  pz               28      0.417931   2 C  pz        
   104      0.417940   6 C  pz               66     -0.269293   4 C  pz        
     5     -0.177171   1 C  pz               24      0.112331   2 C  pz        

 Vector   44  Occ=0.000000D+00  E= 5.644537D-01
              MO Center= -1.0D-04, -5.2D-01,  1.2D-03, r^2= 4.9D+00
   Bfn.  Coefficient  Atom+Function         Bfn.  Coefficient  Atom+Function  
  ----- ------------  ---------------      ----- ------------  ---------------
    10      1.489447   1 C  s               117      1.208764   7 H  s         
    30     -1.101238   2 C  px              106      1.102590   6 C  px        
    31      0.992554   2 C  py              107      0.992679   6 C  py        
    48     -0.834593   3 N  s                67      0.837261   4 C  s         
    86     -0.834375   5 N  s                12      0.789640   1 C  py        

 Vector   45  Occ=0.000000D+00  E= 5.710487D-01
              MO Center= -1.2D-04, -1.0D+00, -3.5D-04, r^2= 5.4D+00
   Bfn.  Coefficient  Atom+Function         Bfn.  Coefficient  Atom+Function  
  ----- ------------  ---------------      ----- ------------  ---------------
    11      2.826971   1 C  px               30      1.556243   2 C  px        
   106      1.555820   6 C  px              120      1.261963   8 H  s         
   126     -1.261742  10 H  s                68     -1.008296   4 C  px        
    31     -0.838287   2 C  py              107      0.837163   6 C  py        
    50     -0.800172   3 N  py               88      0.800128   5 N  py        

 Vector   46  Occ=0.000000D+00  E= 5.989668D-01
              MO Center= -2.2D-04,  5.2D-01, -3.9D-05, r^2= 7.5D+00
   Bfn.  Coefficient  Atom+Function         Bfn.  Coefficient  Atom+Function  
  ----- ------------  ---------------      ----- ------------  ---------------
    10      2.536860   1 C  s                69     -2.046910   4 C  py        
    67     -1.906992   4 C  s               123      1.740052   9 H  s         
    30     -1.682937   2 C  px              106      1.682239   6 C  px        
   120     -1.101450   8 H  s               126     -1.100922  10 H  s         
    63      0.650981   4 C  s                65      0.602207   4 C  py        

 Vector   47  Occ=0.000000D+00  E= 6.523660D-01
              MO Center= -8.1D-05, -7.8D-01,  4.0D-04, r^2= 5.6D+00
   Bfn.  Coefficient  Atom+Function         Bfn.  Coefficient  Atom+Function  
  ----- ------------  ---------------      ----- ------------  ---------------
    12      3.064484   1 C  py              117      1.838522   7 H  s         
    10     -1.613155   1 C  s                67     -1.531467   4 C  s         
    69     -1.307580   4 C  py              123      1.062553   9 H  s         
    29     -0.956223   2 C  s               105     -0.952654   6 C  s         
    31     -0.921945   2 C  py              107     -0.923821   6 C  py        

 Vector   48  Occ=0.000000D+00  E= 6.583007D-01
              MO Center= -5.0D-05, -4.0D-01, -1.5D-04, r^2= 5.4D+00
   Bfn.  Coefficient  Atom+Function         Bfn.  Coefficient  Atom+Function  
  ----- ------------  ---------------      ----- ------------  ---------------
    29      3.768289   2 C  s               105     -3.769168   6 C  s         
    11      3.478714   1 C  px               31     -2.072266   2 C  py        
   107      2.071492   6 C  py              120     -0.944663   8 H  s         
   126      0.944671  10 H  s                25     -0.908557   2 C  s         
   101      0.908606   6 C  s                50     -0.611040   3 N  py        

 Vector   49  Occ=0.000000D+00  E= 6.831169D-01
              MO Center= -2.4D-04, -3.5D-03,  4.7D-04, r^2= 6.0D+00
   Bfn.  Coefficient  Atom+Function         Bfn.  Coefficient  Atom+Function  
  ----- ------------  ---------------      ----- ------------  ---------------
    12      2.124498   1 C  py               30     -1.667256   2 C  px        
   106      1.666522   6 C  px               67      1.347657   4 C  s         
    69      1.329202   4 C  py              120     -1.209605   8 H  s         
   126     -1.209161  10 H  s                31     -1.194429   2 C  py        
   107     -1.194243   6 C  py              123     -1.121023   9 H  s         

 Vector   50  Occ=0.000000D+00  E= 7.033959D-01
              MO Center= -2.1D-03, -1.3D-01, -9.1D-05, r^2= 3.9D+00
   Bfn.  Coefficient  Atom+Function         Bfn.  Coefficient  Atom+Function  
  ----- ------------  ---------------      ----- ------------  ---------------
    29      1.483676   2 C  s               105     -1.481055   6 C  s         
    49      0.882697   3 N  px               87      0.880555   5 N  px        
    11      0.851673   1 C  px               30      0.782606   2 C  px        
   106      0.785405   6 C  px                7     -0.536100   1 C  px        
    64      0.478177   4 C  px               25     -0.398025   2 C  s         

 Vector   51  Occ=0.000000D+00  E= 7.071476D-01
              MO Center=  2.3D-03,  5.4D-01,  7.7D-04, r^2= 4.7D+00
   Bfn.  Coefficient  Atom+Function         Bfn.  Coefficient  Atom+Function  
  ----- ------------  ---------------      ----- ------------  ---------------
    10      1.503646   1 C  s                67     -1.228244   4 C  s         
    30      0.884541   2 C  px              106     -0.881973   6 C  px        
    50      0.860207   3 N  py               88      0.859274   5 N  py        
    63      0.771071   4 C  s                31      0.762811   2 C  py        
   107      0.762338   6 C  py              105     -0.732208   6 C  s         

 Vector   52  Occ=0.000000D+00  E= 7.096142D-01
              MO Center=  7.7D-05,  7.2D-01,  6.6D-05, r^2= 3.7D+00
   Bfn.  Coefficient  Atom+Function         Bfn.  Coefficient  Atom+Function  
  ----- ------------  ---------------      ----- ------------  ---------------
    51      1.118122   3 N  pz               89     -1.118089   5 N  pz        
    47     -0.616810   3 N  pz               85      0.616798   5 N  pz        
    32     -0.489614   2 C  pz              108      0.489620   6 C  pz        
    43     -0.168473   3 N  pz               81      0.168469   5 N  pz        
    73      0.105907   4 C  dxz              28      0.072146   2 C  pz        

 Vector   53  Occ=0.000000D+00  E= 7.731909D-01
              MO Center= -7.6D-04, -3.0D-01, -1.8D-04, r^2= 5.0D+00
   Bfn.  Coefficient  Atom+Function         Bfn.  Coefficient  Atom+Function  
  ----- ------------  ---------------      ----- ------------  ---------------
    10      8.390530   1 C  s                29     -4.363890   2 C  s         
   105     -4.361053   6 C  s                12      2.041985   1 C  py        
    30     -1.850714   2 C  px              106      1.850176   6 C  px        
    69      1.814465   4 C  py                6     -1.339811   1 C  s         
    31      1.147875   2 C  py              107      1.145766   6 C  py        

 Vector   54  Occ=0.000000D+00  E= 7.923581D-01
              MO Center=  6.6D-04, -2.1D-01,  3.4D-06, r^2= 5.1D+00
   Bfn.  Coefficient  Atom+Function         Bfn.  Coefficient  Atom+Function  
  ----- ------------  ---------------      ----- ------------  ---------------
    11      4.651466   1 C  px               29      4.364522   2 C  s         
   105     -4.366936   6 C  s                31     -2.667003   2 C  py        
   107      2.667921   6 C  py               49     -0.957791   3 N  px        
    87     -0.958502   5 N  px              119     -0.738810   8 H  s         
   125      0.739082  10 H  s                50      0.655232   3 N  py        

 Vector   55  Occ=0.000000D+00  E= 7.963135D-01
              MO Center= -1.5D-04, -2.1D-01, -3.1D-02, r^2= 4.6D+00
   Bfn.  Coefficient  Atom+Function         Bfn.  Coefficient  Atom+Function  
  ----- ------------  ---------------      ----- ------------  ---------------
    12      3.467426   1 C  py               69      2.897140   4 C  py        
   116      1.577307   7 H  s                67     -1.373664   4 C  s         
    48      1.363207   3 N  s                86      1.362989   5 N  s         
   122     -1.137321   9 H  s               117      0.960348   7 H  s         
   123     -0.718038   9 H  s                25     -0.679534   2 C  s         

 Vector   56  Occ=0.000000D+00  E= 7.973711D-01
              MO Center=  2.0D-04,  6.6D-01,  2.8D-02, r^2= 4.2D+00
   Bfn.  Coefficient  Atom+Function         Bfn.  Coefficient  Atom+Function  
  ----- ------------  ---------------      ----- ------------  ---------------
    51      1.490204   3 N  pz               89      1.490232   5 N  pz        
    70     -1.060560   4 C  pz               32     -0.777908   2 C  pz        
   108     -0.777941   6 C  pz               13      0.664484   1 C  pz        
    47     -0.631006   3 N  pz               85     -0.631025   5 N  pz        
    12     -0.166631   1 C  py               43     -0.165678   3 N  pz        

 Vector   57  Occ=0.000000D+00  E= 8.365488D-01
              MO Center=  2.1D-04,  1.1D-01,  1.3D-04, r^2= 5.6D+00
   Bfn.  Coefficient  Atom+Function         Bfn.  Coefficient  Atom+Function  
  ----- ------------  ---------------      ----- ------------  ---------------
    30      3.570152   2 C  px              106      3.570887   6 C  px        
    29      1.782142   2 C  s               105     -1.784561   6 C  s         
    31      1.759213   2 C  py              107     -1.760582   6 C  py        
    68      1.575806   4 C  px              119      1.339351   8 H  s         
   125     -1.339465  10 H  s                50      1.100297   3 N  py        

 Vector   58  Occ=0.000000D+00  E= 9.083777D-01
              MO Center= -6.0D-05, -6.2D-02, -5.8D-03, r^2= 5.3D+00
   Bfn.  Coefficient  Atom+Function         Bfn.  Coefficient  Atom+Function  
  ----- ------------  ---------------      ----- ------------  ---------------
    12      7.065286   1 C  py               29     -6.812903   2 C  s         
   105     -6.813554   6 C  s                10      6.765743   1 C  s         
    67      5.669819   4 C  s                30     -3.113477   2 C  px        
   106      3.112303   6 C  px               31     -3.081947   2 C  py        
   107     -3.082451   6 C  py               69     -2.535858   4 C  py        

 Vector   59  Occ=0.000000D+00  E= 9.967564D-01
              MO Center= -1.5D-04,  5.4D-01,  5.5D-05, r^2= 5.3D+00
   Bfn.  Coefficient  Atom+Function         Bfn.  Coefficient  Atom+Function  
  ----- ------------  ---------------      ----- ------------  ---------------
    50      3.619059   3 N  py               88     -3.619324   5 N  py        
    68      3.454571   4 C  px               31      2.669433   2 C  py        
   107     -2.669141   6 C  py               11     -2.356150   1 C  px        
    49      1.845343   3 N  px               87      1.843875   5 N  px        
    30     -1.584730   2 C  px              106     -1.584553   6 C  px        

 Vector   60  Occ=0.000000D+00  E= 1.026083D+00
              MO Center=  3.0D-04,  4.7D-01,  7.2D-04, r^2= 5.4D+00
   Bfn.  Coefficient  Atom+Function         Bfn.  Coefficient  Atom+Function  
  ----- ------------  ---------------      ----- ------------  ---------------
    10      8.334719   1 C  s                12      4.734640   1 C  py        
    30     -4.593640   2 C  px              106      4.593780   6 C  px        
    29     -3.692775   2 C  s               105     -3.692873   6 C  s         
    69     -2.945746   4 C  py               67     -2.026739   4 C  s         
    50      1.686820   3 N  py               88      1.688291   5 N  py        

 Vector   61  Occ=0.000000D+00  E= 1.058916D+00
              MO Center= -2.9D-04, -4.2D-01, -2.6D-04, r^2= 2.3D+00
   Bfn.  Coefficient  Atom+Function         Bfn.  Coefficient  Atom+Function  
  ----- ------------  ---------------      ----- ------------  ---------------
    16      0.765313   1 C  dxz              37      0.576924   2 C  dyz       
   113     -0.577132   6 C  dyz              73      0.550810   4 C  dxz       
    35     -0.428851   2 C  dxz             111     -0.428186   6 C  dxz       
    56     -0.199883   3 N  dyz              94      0.199997   5 N  dyz       
    54     -0.115434   3 N  dxz              92     -0.115193   5 N  dxz       

 Vector   62  Occ=0.000000D+00  E= 1.062741D+00
              MO Center=  5.2D-04, -2.6D-01, -8.2D-02, r^2= 3.1D+00
   Bfn.  Coefficient  Atom+Function         Bfn.  Coefficient  Atom+Function  
  ----- ------------  ---------------      ----- ------------  ---------------
    48      4.234437   3 N  s                86      4.242820   5 N  s         
    10      3.060903   1 C  s                29     -2.795496   2 C  s         
   105     -2.798786   6 C  s                69      1.933116   4 C  py        
    67     -1.894660   4 C  s                12      1.571043   1 C  py        
    30     -1.222083   2 C  px              106      1.220637   6 C  px        

 Vector   63  Occ=0.000000D+00  E= 1.062800D+00
              MO Center= -2.6D-04, -2.3D-01,  8.5D-02, r^2= 3.1D+00
   Bfn.  Coefficient  Atom+Function         Bfn.  Coefficient  Atom+Function  
  ----- ------------  ---------------      ----- ------------  ---------------
    48      4.280306   3 N  s                86      4.273909   5 N  s         
    10      2.745676   1 C  s                29     -2.623159   2 C  s         
   105     -2.620731   6 C  s                69      2.092331   4 C  py        
    67     -1.959367   4 C  s                12      1.279164   1 C  py        
    50     -1.151941   3 N  py               88     -1.150332   5 N  py        

 Vector   64  Occ=0.000000D+00  E= 1.128774D+00
              MO Center= -1.4D-04,  6.5D-01,  1.0D-04, r^2= 4.0D+00
   Bfn.  Coefficient  Atom+Function         Bfn.  Coefficient  Atom+Function  
  ----- ------------  ---------------      ----- ------------  ---------------
    48      5.891015   3 N  s                86     -5.888994   5 N  s         
    31     -2.206878   2 C  py              107      2.206707   6 C  py        
    68      2.040849   4 C  px               30     -1.577659   2 C  px        
   106     -1.576355   6 C  px               11      1.441270   1 C  px        
    44     -1.358426   3 N  s                82      1.358059   5 N  s         

 Vector   65  Occ=0.000000D+00  E= 1.250537D+00
              MO Center=  1.2D-04, -1.7D-01, -2.8D-04, r^2= 2.6D+00
   Bfn.  Coefficient  Atom+Function         Bfn.  Coefficient  Atom+Function  
  ----- ------------  ---------------      ----- ------------  ---------------
    35      0.814625   2 C  dxz             111      0.814555   6 C  dxz       
    73      0.765700   4 C  dxz              37      0.451135   2 C  dyz       
   113     -0.451526   6 C  dyz              16     -0.395813   1 C  dxz       
    56     -0.242804   3 N  dyz              94      0.242787   5 N  dyz       
    28     -0.111787   2 C  pz              104      0.111835   6 C  pz        

 Vector   66  Occ=0.000000D+00  E= 1.267180D+00
              MO Center= -3.5D-05,  9.3D-01, -3.9D-04, r^2= 1.7D+00
   Bfn.  Coefficient  Atom+Function         Bfn.  Coefficient  Atom+Function  
  ----- ------------  ---------------      ----- ------------  ---------------
    75      1.495421   4 C  dyz              18      0.428336   1 C  dyz       
    37      0.309142   2 C  dyz             113      0.308899   6 C  dyz       
    70     -0.305103   4 C  pz               54     -0.263344   3 N  dxz       
    92      0.263312   5 N  dxz              13      0.151279   1 C  pz        
    51      0.141095   3 N  pz               89      0.141051   5 N  pz        

 Vector   67  Occ=0.000000D+00  E= 1.332761D+00
              MO Center=  2.8D-05, -2.6D-01, -2.4D-03, r^2= 3.9D+00
   Bfn.  Coefficient  Atom+Function         Bfn.  Coefficient  Atom+Function  
  ----- ------------  ---------------      ----- ------------  ---------------
    48     -3.448568   3 N  s                86     -3.449388   5 N  s         
    29      3.251642   2 C  s               105      3.252142   6 C  s         
    12     -2.313695   1 C  py               10     -2.233152   1 C  s         
    67      2.028714   4 C  s               116     -1.049935   7 H  s         
    31      0.959721   2 C  py              107      0.960306   6 C  py        

 Vector   68  Occ=0.000000D+00  E= 1.353301D+00
              MO Center= -1.2D-04, -3.7D-01,  2.1D-03, r^2= 2.5D+00
   Bfn.  Coefficient  Atom+Function         Bfn.  Coefficient  Atom+Function  
  ----- ------------  ---------------      ----- ------------  ---------------
    37      1.010812   2 C  dyz             113      1.010709   6 C  dyz       
    18     -0.557681   1 C  dyz              56     -0.373000   3 N  dyz       
    94     -0.372983   5 N  dyz              51     -0.316054   3 N  pz        
    89     -0.315999   5 N  pz               70      0.264405   4 C  pz        
    75     -0.221605   4 C  dyz               9      0.136225   1 C  pz        

 Vector   69  Occ=0.000000D+00  E= 1.412296D+00
              MO Center=  1.6D-04,  4.1D-01, -3.3D-05, r^2= 2.5D+00
   Bfn.  Coefficient  Atom+Function         Bfn.  Coefficient  Atom+Function  
  ----- ------------  ---------------      ----- ------------  ---------------
    73      1.138469   4 C  dxz              37     -0.583822   2 C  dyz       
   113      0.584127   6 C  dyz              16     -0.527882   1 C  dxz       
    35     -0.417555   2 C  dxz             111     -0.417330   6 C  dxz       
    54     -0.414403   3 N  dxz              92     -0.414446   5 N  dxz       
    51      0.294415   3 N  pz               89     -0.294494   5 N  pz        

 Vector   70  Occ=0.000000D+00  E= 1.494846D+00
              MO Center=  1.7D-04,  6.3D-01,  2.5D-04, r^2= 3.6D+00
   Bfn.  Coefficient  Atom+Function         Bfn.  Coefficient  Atom+Function  
  ----- ------------  ---------------      ----- ------------  ---------------
   122      1.418321   9 H  s                67     -0.827894   4 C  s         
    74     -0.817675   4 C  dyy             116     -0.807575   7 H  s         
    76      0.538243   4 C  dzz              12     -0.486207   1 C  py        
    17      0.473285   1 C  dyy              69     -0.429012   4 C  py        
    29      0.386430   2 C  s               105      0.386731   6 C  s         

 Vector   71  Occ=0.000000D+00  E= 1.524828D+00
              MO Center= -1.8D-04, -8.0D-01, -2.5D-04, r^2= 3.2D+00
   Bfn.  Coefficient  Atom+Function         Bfn.  Coefficient  Atom+Function  
  ----- ------------  ---------------      ----- ------------  ---------------
   119     -1.194266   8 H  s               125      1.194072  10 H  s         
    29      1.090358   2 C  s               105     -1.090230   6 C  s         
    31     -0.656198   2 C  py              107      0.656121   6 C  py        
    15     -0.583566   1 C  dxy              33      0.584825   2 C  dxx       
   109     -0.584671   6 C  dxx              11      0.468635   1 C  px        

 Vector   72  Occ=0.000000D+00  E= 1.554013D+00
              MO Center= -9.0D-05, -2.7D-01, -4.9D-04, r^2= 3.0D+00
   Bfn.  Coefficient  Atom+Function         Bfn.  Coefficient  Atom+Function  
  ----- ------------  ---------------      ----- ------------  ---------------
    10      2.053304   1 C  s                12      1.701254   1 C  py        
    48      1.187911   3 N  s                86      1.187785   5 N  s         
    29     -1.163346   2 C  s               105     -1.163432   6 C  s         
    67     -0.764305   4 C  s                 6     -0.619267   1 C  s         
    19     -0.575825   1 C  dzz              34     -0.479485   2 C  dxy       

 Vector   73  Occ=0.000000D+00  E= 1.598150D+00
              MO Center= -1.6D-04, -5.0D-01, -1.4D-04, r^2= 3.1D+00
   Bfn.  Coefficient  Atom+Function         Bfn.  Coefficient  Atom+Function  
  ----- ------------  ---------------      ----- ------------  ---------------
    11      1.821321   1 C  px               50     -1.180608   3 N  py        
    88      1.180720   5 N  py               68     -0.947579   4 C  px        
    15      0.916860   1 C  dxy              34      0.866963   2 C  dxy       
   110      0.866757   6 C  dxy              31     -0.839439   2 C  py        
   107      0.839301   6 C  py              119     -0.656895   8 H  s         

 Vector   74  Occ=0.000000D+00  E= 1.732219D+00
              MO Center= -7.5D-05, -7.8D-01,  9.7D-04, r^2= 3.7D+00
   Bfn.  Coefficient  Atom+Function         Bfn.  Coefficient  Atom+Function  
  ----- ------------  ---------------      ----- ------------  ---------------
   116      1.553061   7 H  s                10     -1.240773   1 C  s         
    34      0.741040   2 C  dxy             110     -0.740921   6 C  dxy       
   119     -0.670560   8 H  s               125     -0.670549  10 H  s         
    12      0.655644   1 C  py               69      0.632171   4 C  py        
    17     -0.592575   1 C  dyy              29      0.433697   2 C  s         

 Vector   75  Occ=0.000000D+00  E= 1.821552D+00
              MO Center= -1.7D-04, -8.5D-01, -2.8D-04, r^2= 2.2D+00
   Bfn.  Coefficient  Atom+Function         Bfn.  Coefficient  Atom+Function  
  ----- ------------  ---------------      ----- ------------  ---------------
    18      1.451229   1 C  dyz              35     -1.113578   2 C  dxz       
   111      1.113608   6 C  dxz              13      0.672383   1 C  pz        
    32     -0.417718   2 C  pz              108     -0.417707   6 C  pz        
    75     -0.379216   4 C  dyz              37      0.260990   2 C  dyz       
   113      0.260578   6 C  dyz               5      0.202453   1 C  pz        

 Vector   76  Occ=0.000000D+00  E= 1.826663D+00
              MO Center=  1.4D-04,  7.8D-01,  1.6D-05, r^2= 2.4D+00
   Bfn.  Coefficient  Atom+Function         Bfn.  Coefficient  Atom+Function  
  ----- ------------  ---------------      ----- ------------  ---------------
    72      1.617486   4 C  dxy              30     -1.054185   2 C  px        
   106     -1.054605   6 C  px               49      0.677158   3 N  px        
    87      0.676874   5 N  px               15      0.584964   1 C  dxy       
    50      0.566729   3 N  py               88     -0.566757   5 N  py        
    29     -0.448938   2 C  s               105      0.449437   6 C  s         

 Vector   77  Occ=0.000000D+00  E= 1.849323D+00
              MO Center=  8.3D-05,  5.2D-01,  2.5D-05, r^2= 2.7D+00
   Bfn.  Coefficient  Atom+Function         Bfn.  Coefficient  Atom+Function  
  ----- ------------  ---------------      ----- ------------  ---------------
    67      2.054778   4 C  s                69     -1.259827   4 C  py        
    29     -1.110144   2 C  s               105     -1.109669   6 C  s         
    76     -0.970685   4 C  dzz              30     -0.784623   2 C  px        
   106      0.783802   6 C  px               71      0.754557   4 C  dxx       
    19      0.610525   1 C  dzz              50     -0.572489   3 N  py        

 Vector   78  Occ=0.000000D+00  E= 1.863608D+00
              MO Center= -3.8D-05, -2.7D-01, -9.4D-05, r^2= 2.8D+00
   Bfn.  Coefficient  Atom+Function         Bfn.  Coefficient  Atom+Function  
  ----- ------------  ---------------      ----- ------------  ---------------
    29      2.140299   2 C  s               105     -2.140408   6 C  s         
    30      0.897928   2 C  px              106      0.897835   6 C  px        
    38     -0.786209   2 C  dzz             114      0.786224   6 C  dzz       
    72      0.776290   4 C  dxy              48     -0.637902   3 N  s         
    86      0.637931   5 N  s                50      0.598599   3 N  py        

 Vector   79  Occ=0.000000D+00  E= 1.965513D+00
              MO Center= -1.6D-04, -8.5D-01,  5.7D-05, r^2= 3.0D+00
   Bfn.  Coefficient  Atom+Function         Bfn.  Coefficient  Atom+Function  
  ----- ------------  ---------------      ----- ------------  ---------------
    10      2.562622   1 C  s                29     -1.130516   2 C  s         
   105     -1.130290   6 C  s                31      0.986763   2 C  py        
   107      0.986421   6 C  py              116     -0.965146   7 H  s         
    33     -0.766840   2 C  dxx             109     -0.766951   6 C  dxx       
   119      0.768707   8 H  s               125      0.768710  10 H  s         

 Vector   80  Occ=0.000000D+00  E= 1.974728D+00
              MO Center= -5.7D-05, -6.9D-01, -2.3D-04, r^2= 2.3D+00
   Bfn.  Coefficient  Atom+Function         Bfn.  Coefficient  Atom+Function  
  ----- ------------  ---------------      ----- ------------  ---------------
    16      1.671839   1 C  dxz              35      0.848593   2 C  dxz       
   111      0.848903   6 C  dxz              37     -0.574366   2 C  dyz       
   113      0.574168   6 C  dyz              73      0.513005   4 C  dxz       
    56      0.358754   3 N  dyz              94     -0.358743   5 N  dyz       
    32      0.217366   2 C  pz              108     -0.217404   6 C  pz        

 Vector   81  Occ=0.000000D+00  E= 2.132899D+00
              MO Center=  1.5D-04,  5.5D-01, -2.5D-05, r^2= 4.4D+00
   Bfn.  Coefficient  Atom+Function         Bfn.  Coefficient  Atom+Function  
  ----- ------------  ---------------      ----- ------------  ---------------
   122      1.425685   9 H  s                12     -0.991463   1 C  py        
    69     -0.896813   4 C  py               67      0.853140   4 C  s         
    48     -0.786816   3 N  s                86     -0.786768   5 N  s         
   121     -0.718815   9 H  s               119      0.696055   8 H  s         
   125      0.696123  10 H  s                53     -0.425527   3 N  dxy       

 Vector   82  Occ=0.000000D+00  E= 2.180459D+00
              MO Center= -1.0D-06, -1.4D-01, -1.4D-04, r^2= 3.7D+00
   Bfn.  Coefficient  Atom+Function         Bfn.  Coefficient  Atom+Function  
  ----- ------------  ---------------      ----- ------------  ---------------
    15      1.032051   1 C  dxy             119      0.966310   8 H  s         
   125     -0.966287  10 H  s                30      0.844264   2 C  px        
   106      0.844261   6 C  px               72     -0.769353   4 C  dxy       
    29      0.765502   2 C  s               105     -0.765865   6 C  s         
    34     -0.751677   2 C  dxy             110     -0.751471   6 C  dxy       

 Vector   83  Occ=0.000000D+00  E= 2.250994D+00
              MO Center=  1.8D-04,  4.6D-01,  2.7D-04, r^2= 2.4D+00
   Bfn.  Coefficient  Atom+Function         Bfn.  Coefficient  Atom+Function  
  ----- ------------  ---------------      ----- ------------  ---------------
    54      1.004384   3 N  dxz              92      1.004914   5 N  dxz       
    73      0.765488   4 C  dxz              37     -0.685452   2 C  dyz       
   113      0.685390   6 C  dyz              56     -0.618434   3 N  dyz       
    94      0.617951   5 N  dyz              51      0.367872   3 N  pz        
    89     -0.367949   5 N  pz               16      0.289363   1 C  dxz       

 Vector   84  Occ=0.000000D+00  E= 2.254097D+00
              MO Center=  1.0D-04, -9.4D-01, -5.2D-04, r^2= 2.7D+00
   Bfn.  Coefficient  Atom+Function         Bfn.  Coefficient  Atom+Function  
  ----- ------------  ---------------      ----- ------------  ---------------
    11      2.348600   1 C  px               15      1.832935   1 C  dxy       
    29      1.531917   2 C  s               105     -1.529887   6 C  s         
    31     -1.162575   2 C  py              107      1.162935   6 C  py        
   119     -0.749642   8 H  s               125      0.750100  10 H  s         
    33      0.653704   2 C  dxx             109     -0.653935   6 C  dxx       

 Vector   85  Occ=0.000000D+00  E= 2.290460D+00
              MO Center=  3.0D-05,  8.2D-01, -6.6D-04, r^2= 2.0D+00
   Bfn.  Coefficient  Atom+Function         Bfn.  Coefficient  Atom+Function  
  ----- ------------  ---------------      ----- ------------  ---------------
    54      0.905076   3 N  dxz              92     -0.904534   5 N  dxz       
    75      0.676880   4 C  dyz              62     -0.649571   4 C  pz        
    70     -0.522437   4 C  pz               56      0.512949   3 N  dyz       
    94      0.513459   5 N  dyz              66      0.491362   4 C  pz        
    37      0.321245   2 C  dyz             113      0.321451   6 C  dyz       

 Vector   86  Occ=0.000000D+00  E= 2.295139D+00
              MO Center= -2.6D-04, -7.6D-01,  3.6D-04, r^2= 3.2D+00
   Bfn.  Coefficient  Atom+Function         Bfn.  Coefficient  Atom+Function  
  ----- ------------  ---------------      ----- ------------  ---------------
    10      6.227816   1 C  s                29     -4.722709   2 C  s         
   105     -4.723779   6 C  s                12      3.778069   1 C  py        
    30     -2.284460   2 C  px              106      2.284463   6 C  px        
    67      1.650387   4 C  s                31     -1.104990   2 C  py        
    69     -1.105753   4 C  py              107     -1.105224   6 C  py        

 Vector   87  Occ=0.000000D+00  E= 2.314815D+00
              MO Center= -1.2D-04, -8.5D-01,  8.3D-04, r^2= 4.2D+00
   Bfn.  Coefficient  Atom+Function         Bfn.  Coefficient  Atom+Function  
  ----- ------------  ---------------      ----- ------------  ---------------
   116      1.413671   7 H  s               115     -0.900607   7 H  s         
   122     -0.835621   9 H  s                 8      0.586571   1 C  py        
    12      0.544733   1 C  py              119      0.539573   8 H  s         
   125      0.539509  10 H  s                10      0.532972   1 C  s         
     4     -0.525648   1 C  py              121      0.510798   9 H  s         

 Vector   88  Occ=0.000000D+00  E= 2.348508D+00
              MO Center= -8.7D-07,  1.5D-01, -1.1D-04, r^2= 2.7D+00
   Bfn.  Coefficient  Atom+Function         Bfn.  Coefficient  Atom+Function  
  ----- ------------  ---------------      ----- ------------  ---------------
    56      0.932725   3 N  dyz              94      0.932539   5 N  dyz       
    37      0.639374   2 C  dyz             113      0.639387   6 C  dyz       
    54     -0.487186   3 N  dxz              92      0.487476   5 N  dxz       
    24      0.439882   2 C  pz               75     -0.439498   4 C  dyz       
   100      0.439883   6 C  pz               32      0.410058   2 C  pz        

 Vector   89  Occ=0.000000D+00  E= 2.575120D+00
              MO Center=  3.4D-04,  9.6D-01,  2.8D-04, r^2= 2.6D+00
   Bfn.  Coefficient  Atom+Function         Bfn.  Coefficient  Atom+Function  
  ----- ------------  ---------------      ----- ------------  ---------------
    48      1.796026   3 N  s                67     -1.793160   4 C  s         
    86      1.796532   5 N  s               122     -0.956144   9 H  s         
    76      0.837963   4 C  dzz              63     -0.811131   4 C  s         
    29     -0.801349   2 C  s               105     -0.801842   6 C  s         
    69      0.767707   4 C  py               25     -0.621062   2 C  s         

 Vector   90  Occ=0.000000D+00  E= 2.588772D+00
              MO Center= -1.3D-04,  9.9D-02, -7.7D-05, r^2= 3.5D+00
   Bfn.  Coefficient  Atom+Function         Bfn.  Coefficient  Atom+Function  
  ----- ------------  ---------------      ----- ------------  ---------------
    48      2.050378   3 N  s                86     -2.049807   5 N  s         
    29     -1.840270   2 C  s               105      1.839977   6 C  s         
    30     -1.014632   2 C  px              106     -1.014649   6 C  px        
    49      0.889239   3 N  px               87      0.889315   5 N  px        
   119     -0.811035   8 H  s               125      0.811019  10 H  s         

 Vector   91  Occ=0.000000D+00  E= 2.650971D+00
              MO Center= -6.1D-05, -6.1D-01, -1.8D-03, r^2= 2.2D+00
   Bfn.  Coefficient  Atom+Function         Bfn.  Coefficient  Atom+Function  
  ----- ------------  ---------------      ----- ------------  ---------------
     9      1.018079   1 C  pz                5     -0.903163   1 C  pz        
    56      0.542631   3 N  dyz              94      0.542393   5 N  dyz       
    28      0.535546   2 C  pz              104      0.535687   6 C  pz        
    24     -0.483253   2 C  pz              100     -0.483380   6 C  pz        
    13     -0.474682   1 C  pz               37      0.474660   2 C  dyz       

 Vector   92  Occ=0.000000D+00  E= 2.668669D+00
              MO Center= -8.3D-05, -1.9D-01, -1.2D-04, r^2= 2.7D+00
   Bfn.  Coefficient  Atom+Function         Bfn.  Coefficient  Atom+Function  
  ----- ------------  ---------------      ----- ------------  ---------------
    16      0.885669   1 C  dxz              73     -0.848353   4 C  dxz       
    28      0.744188   2 C  pz              104     -0.744077   6 C  pz        
    54     -0.650013   3 N  dxz              92     -0.649750   5 N  dxz       
    24     -0.633535   2 C  pz              100      0.633431   6 C  pz        
    56     -0.579643   3 N  dyz              94      0.579987   5 N  dyz       

 Vector   93  Occ=0.000000D+00  E= 2.713847D+00
              MO Center= -3.3D-05,  9.6D-02,  9.3D-04, r^2= 3.1D+00
   Bfn.  Coefficient  Atom+Function         Bfn.  Coefficient  Atom+Function  
  ----- ------------  ---------------      ----- ------------  ---------------
    10      1.737190   1 C  s                67     -1.520259   4 C  s         
    50      0.844734   3 N  py               88      0.845228   5 N  py        
    30     -0.815172   2 C  px              106      0.815177   6 C  px        
    63     -0.809566   4 C  s                49      0.802514   3 N  px        
    53      0.801363   3 N  dxy              87     -0.802118   5 N  px        

 Vector   94  Occ=0.000000D+00  E= 2.809058D+00
              MO Center= -2.5D-05,  3.2D-01, -2.0D-04, r^2= 2.6D+00
   Bfn.  Coefficient  Atom+Function         Bfn.  Coefficient  Atom+Function  
  ----- ------------  ---------------      ----- ------------  ---------------
    31      0.871848   2 C  py              107     -0.871689   6 C  py        
    50      0.848379   3 N  py               88     -0.848354   5 N  py        
    48     -0.800902   3 N  s                86      0.801109   5 N  s         
    68      0.715257   4 C  px               11     -0.615962   1 C  px        
    55     -0.605385   3 N  dyy              72     -0.603429   4 C  dxy       

 Vector   95  Occ=0.000000D+00  E= 2.815271D+00
              MO Center=  1.8D-05,  9.9D-01, -1.0D-04, r^2= 1.6D+00
   Bfn.  Coefficient  Atom+Function         Bfn.  Coefficient  Atom+Function  
  ----- ------------  ---------------      ----- ------------  ---------------
    66      1.409207   4 C  pz               62     -1.086593   4 C  pz        
    54     -0.741830   3 N  dxz              92      0.741574   5 N  dxz       
    70     -0.430349   4 C  pz               56     -0.406874   3 N  dyz       
    94     -0.406880   5 N  dyz              75     -0.396004   4 C  dyz       
     9     -0.248822   1 C  pz               28     -0.209463   2 C  pz        

 Vector   96  Occ=0.000000D+00  E= 2.821650D+00
              MO Center=  9.5D-05,  1.4D-01,  1.1D-04, r^2= 2.6D+00
   Bfn.  Coefficient  Atom+Function         Bfn.  Coefficient  Atom+Function  
  ----- ------------  ---------------      ----- ------------  ---------------
    56      1.024865   3 N  dyz              94     -1.025094   5 N  dyz       
    28      0.827509   2 C  pz              104     -0.827491   6 C  pz        
    73      0.794610   4 C  dxz              24     -0.637902   2 C  pz        
   100      0.637884   6 C  pz               37      0.473019   2 C  dyz       
   113     -0.473069   6 C  dyz              54      0.413536   3 N  dxz       

 Vector   97  Occ=0.000000D+00  E= 2.920298D+00
              MO Center= -1.1D-05,  4.9D-01, -2.7D-05, r^2= 2.6D+00
   Bfn.  Coefficient  Atom+Function         Bfn.  Coefficient  Atom+Function  
  ----- ------------  ---------------      ----- ------------  ---------------
    53      1.081702   3 N  dxy              91      1.081898   5 N  dxy       
    68      0.883113   4 C  px               50      0.731811   3 N  py        
    88     -0.731744   5 N  py               34      0.669506   2 C  dxy       
   110      0.669617   6 C  dxy              60      0.633187   4 C  px        
    29      0.605370   2 C  s               105     -0.605179   6 C  s         

 Vector   98  Occ=0.000000D+00  E= 2.926416D+00
              MO Center= -4.8D-05, -7.9D-01, -4.2D-04, r^2= 1.8D+00
   Bfn.  Coefficient  Atom+Function         Bfn.  Coefficient  Atom+Function  
  ----- ------------  ---------------      ----- ------------  ---------------
     9      1.234282   1 C  pz                5     -0.904951   1 C  pz        
    28     -0.875132   2 C  pz              104     -0.875242   6 C  pz        
    24      0.635890   2 C  pz              100      0.635958   6 C  pz        
    13     -0.572226   1 C  pz               18      0.439645   1 C  dyz       
    35     -0.411244   2 C  dxz             111      0.411273   6 C  dxz       

 Vector   99  Occ=0.000000D+00  E= 2.949337D+00
              MO Center=  6.2D-06, -4.7D-01, -1.7D-04, r^2= 3.1D+00
   Bfn.  Coefficient  Atom+Function         Bfn.  Coefficient  Atom+Function  
  ----- ------------  ---------------      ----- ------------  ---------------
    10      2.743904   1 C  s                14     -1.214843   1 C  dxx       
    29     -1.207964   2 C  s               105     -1.208016   6 C  s         
     6      1.089953   1 C  s                12      1.087308   1 C  py        
    19     -1.024982   1 C  dzz              74      0.954750   4 C  dyy       
    17     -0.706921   1 C  dyy              63     -0.708027   4 C  s         

 Vector  100  Occ=0.000000D+00  E= 3.006678D+00
              MO Center= -7.7D-05,  2.6D-01,  1.8D-04, r^2= 3.1D+00
   Bfn.  Coefficient  Atom+Function         Bfn.  Coefficient  Atom+Function  
  ----- ------------  ---------------      ----- ------------  ---------------
    67      1.989752   4 C  s                29     -1.674783   2 C  s         
   105     -1.674536   6 C  s                12      0.948833   1 C  py        
    69     -0.827951   4 C  py               71     -0.796532   4 C  dxx       
    63      0.758599   4 C  s                10      0.722599   1 C  s         
    25     -0.715542   2 C  s               101     -0.715275   6 C  s         

 Vector  101  Occ=0.000000D+00  E= 3.026161D+00
              MO Center=  1.3D-04, -7.7D-01, -2.5D-04, r^2= 2.4D+00
   Bfn.  Coefficient  Atom+Function         Bfn.  Coefficient  Atom+Function  
  ----- ------------  ---------------      ----- ------------  ---------------
    29      1.540881   2 C  s               105     -1.541783   6 C  s         
    25      1.293248   2 C  s               101     -1.293447   6 C  s         
    36     -1.136919   2 C  dyy             112      1.137172   6 C  dyy       
    33     -1.114845   2 C  dxx             109      1.114987   6 C  dxx       
    38     -0.887347   2 C  dzz             114      0.887532   6 C  dzz       

 Vector  102  Occ=0.000000D+00  E= 3.107292D+00
              MO Center=  1.4D-04,  8.1D-01,  1.7D-04, r^2= 3.3D+00
   Bfn.  Coefficient  Atom+Function         Bfn.  Coefficient  Atom+Function  
  ----- ------------  ---------------      ----- ------------  ---------------
    10      3.343566   1 C  s                48      1.511421   3 N  s         
    86      1.511470   5 N  s                29     -1.458666   2 C  s         
    69      1.463056   4 C  py              105     -1.458808   6 C  s         
    74     -1.352052   4 C  dyy              71     -1.103284   4 C  dxx       
    63      1.086061   4 C  s                30     -0.938430   2 C  px        

 Vector  103  Occ=0.000000D+00  E= 3.162762D+00
              MO Center=  6.7D-05, -8.7D-01,  6.3D-04, r^2= 3.3D+00
   Bfn.  Coefficient  Atom+Function         Bfn.  Coefficient  Atom+Function  
  ----- ------------  ---------------      ----- ------------  ---------------
    12      1.093538   1 C  py               10     -0.969504   1 C  s         
     6     -0.909646   1 C  s                14      0.906090   1 C  dxx       
    31     -0.877970   2 C  py              107     -0.878567   6 C  py        
    48      0.867579   3 N  s                86      0.867737   5 N  s         
    17      0.857918   1 C  dyy              30     -0.830128   2 C  px        

 Vector  104  Occ=0.000000D+00  E= 3.235493D+00
              MO Center= -6.9D-04, -8.3D-01, -2.0D-04, r^2= 2.6D+00
   Bfn.  Coefficient  Atom+Function         Bfn.  Coefficient  Atom+Function  
  ----- ------------  ---------------      ----- ------------  ---------------
    11      1.617649   1 C  px               31     -1.605735   2 C  py        
   107      1.606153   6 C  py               48      1.106932   3 N  s         
    86     -1.106859   5 N  s                30     -1.076036   2 C  px        
   106     -1.075620   6 C  px               50     -0.990958   3 N  py        
    88      0.990856   5 N  py                7     -0.955705   1 C  px        

 Vector  105  Occ=0.000000D+00  E= 3.275605D+00
              MO Center=  1.0D-04, -1.2D+00, -5.1D-04, r^2= 1.7D+00
   Bfn.  Coefficient  Atom+Function         Bfn.  Coefficient  Atom+Function  
  ----- ------------  ---------------      ----- ------------  ---------------
    12      2.529741   1 C  py              116      1.150203   7 H  s         
     8     -1.112293   1 C  py               29     -1.103137   2 C  s         
   105     -1.103490   6 C  s                 4      0.963104   1 C  py        
   115     -0.793322   7 H  s                10      0.621802   1 C  s         
    26     -0.620808   2 C  px              102      0.621458   6 C  px        

 Vector  106  Occ=0.000000D+00  E= 3.424243D+00
              MO Center=  1.6D-03,  3.9D-01, -1.2D-04, r^2= 3.0D+00
   Bfn.  Coefficient  Atom+Function         Bfn.  Coefficient  Atom+Function  
  ----- ------------  ---------------      ----- ------------  ---------------
    10      3.448504   1 C  s                12      2.275866   1 C  py        
    29     -1.996289   2 C  s               105     -1.992302   6 C  s         
    30     -1.826749   2 C  px              106      1.831185   6 C  px        
    65      1.307600   4 C  py               69     -0.952661   4 C  py        
    49      0.852620   3 N  px               87     -0.854666   5 N  px        

 Vector  107  Occ=0.000000D+00  E= 3.430544D+00
              MO Center= -1.7D-03, -1.0D-01, -1.0D-04, r^2= 2.9D+00
   Bfn.  Coefficient  Atom+Function         Bfn.  Coefficient  Atom+Function  
  ----- ------------  ---------------      ----- ------------  ---------------
    50      1.498979   3 N  py               88     -1.498920   5 N  py        
    27      1.365029   2 C  py              103     -1.364722   6 C  py        
    68      1.014084   4 C  px               36      0.981997   2 C  dyy       
   112     -0.980360   6 C  dyy              30     -0.941884   2 C  px        
   106     -0.932490   6 C  px              105     -0.869863   6 C  s         

 Vector  108  Occ=0.000000D+00  E= 3.484590D+00
              MO Center=  2.1D-04,  4.0D-01, -6.1D-05, r^2= 2.8D+00
   Bfn.  Coefficient  Atom+Function         Bfn.  Coefficient  Atom+Function  
  ----- ------------  ---------------      ----- ------------  ---------------
    10      2.202095   1 C  s                69     -1.956079   4 C  py        
    30     -1.281015   2 C  px              106      1.280880   6 C  px        
    27      1.187152   2 C  py              103      1.187523   6 C  py        
   122      1.085744   9 H  s                65      1.036189   4 C  py        
    12      0.965380   1 C  py               29     -0.967136   2 C  s         

 Vector  109  Occ=0.000000D+00  E= 3.579913D+00
              MO Center=  1.1D-04,  8.8D-01,  2.7D-05, r^2= 1.7D+00
   Bfn.  Coefficient  Atom+Function         Bfn.  Coefficient  Atom+Function  
  ----- ------------  ---------------      ----- ------------  ---------------
    64      2.541138   4 C  px               48      1.791677   3 N  s         
    86     -1.791375   5 N  s                72     -1.446977   4 C  dxy       
    49      1.369570   3 N  px               87      1.369397   5 N  px        
    30     -1.182348   2 C  px              106     -1.182544   6 C  px        
    60     -1.078900   4 C  px               29     -0.767398   2 C  s         

 Vector  110  Occ=0.000000D+00  E= 3.697777D+00
              MO Center=  4.8D-05,  4.0D-01, -3.4D-06, r^2= 2.6D+00
   Bfn.  Coefficient  Atom+Function         Bfn.  Coefficient  Atom+Function  
  ----- ------------  ---------------      ----- ------------  ---------------
    48      3.154943   3 N  s                86      3.155216   5 N  s         
    67     -1.876864   4 C  s                10      1.676271   1 C  s         
    29     -1.578468   2 C  s               105     -1.578549   6 C  s         
    71     -1.494260   4 C  dxx              36     -1.071874   2 C  dyy       
   112     -1.071722   6 C  dyy              65      1.065505   4 C  py        

 Vector  111  Occ=0.000000D+00  E= 3.820377D+00
              MO Center=  8.8D-05,  7.0D-01,  2.4D-05, r^2= 1.9D+00
   Bfn.  Coefficient  Atom+Function         Bfn.  Coefficient  Atom+Function  
  ----- ------------  ---------------      ----- ------------  ---------------
    47      1.093427   3 N  pz               85     -1.093409   5 N  pz        
    43     -0.914956   3 N  pz               81      0.914942   5 N  pz        
    51     -0.462893   3 N  pz               89      0.462887   5 N  pz        
    73      0.353511   4 C  dxz              37     -0.189614   2 C  dyz       
   113      0.189615   6 C  dyz              32      0.151825   2 C  pz        

 Vector  112  Occ=0.000000D+00  E= 3.887315D+00
              MO Center=  1.2D-04,  6.6D-01,  1.5D-04, r^2= 2.0D+00
   Bfn.  Coefficient  Atom+Function         Bfn.  Coefficient  Atom+Function  
  ----- ------------  ---------------      ----- ------------  ---------------
    47      1.120092   3 N  pz               85      1.120107   5 N  pz        
    43     -0.911450   3 N  pz               81     -0.911465   5 N  pz        
    51     -0.629813   3 N  pz               89     -0.629822   5 N  pz        
    70      0.398256   4 C  pz               66     -0.305466   4 C  pz        
    32      0.278199   2 C  pz              108      0.278208   6 C  pz        

 Vector  113  Occ=0.000000D+00  E= 4.104097D+00
              MO Center=  1.0D-03, -8.0D-01, -9.4D-05, r^2= 1.9D+00
   Bfn.  Coefficient  Atom+Function         Bfn.  Coefficient  Atom+Function  
  ----- ------------  ---------------      ----- ------------  ---------------
     8      2.421283   1 C  py               14      2.427851   1 C  dxx       
    26     -1.810637   2 C  px              102      1.811023   6 C  px        
    12     -1.685725   1 C  py               86     -1.578723   5 N  s         
    48     -1.570262   3 N  s                27      1.443019   2 C  py        
   103      1.444157   6 C  py               10     -1.408417   1 C  s         

 Vector  114  Occ=0.000000D+00  E= 4.110458D+00
              MO Center= -9.0D-04,  8.2D-01,  3.6D-05, r^2= 2.5D+00
   Bfn.  Coefficient  Atom+Function         Bfn.  Coefficient  Atom+Function  
  ----- ------------  ---------------      ----- ------------  ---------------
    48      2.870529   3 N  s                86     -2.865758   5 N  s         
    64      1.013951   4 C  px               68      0.941539   4 C  px        
    45      0.926727   3 N  px               72     -0.929728   4 C  dxy       
    83      0.925780   5 N  px               31     -0.817476   2 C  py        
   107      0.816163   6 C  py               57     -0.790968   3 N  dzz       

 Vector  115  Occ=0.000000D+00  E= 4.264856D+00
              MO Center= -1.8D-04, -8.3D-01, -1.9D-04, r^2= 1.8D+00
   Bfn.  Coefficient  Atom+Function         Bfn.  Coefficient  Atom+Function  
  ----- ------------  ---------------      ----- ------------  ---------------
     7      4.117724   1 C  px               15      2.991534   1 C  dxy       
    26      2.082255   2 C  px              102      2.082397   6 C  px        
    34     -1.708696   2 C  dxy             110     -1.708194   6 C  dxy       
    27     -1.258890   2 C  py              103      1.258462   6 C  py        
    33      1.162360   2 C  dxx             109     -1.162744   6 C  dxx       

 Vector  116  Occ=0.000000D+00  E= 4.356693D+00
              MO Center=  2.2D-05,  4.9D-01, -2.0D-04, r^2= 2.3D+00
   Bfn.  Coefficient  Atom+Function         Bfn.  Coefficient  Atom+Function  
  ----- ------------  ---------------      ----- ------------  ---------------
    48      3.488587   3 N  s                86      3.488306   5 N  s         
    29     -2.205757   2 C  s               105     -2.205851   6 C  s         
    10      2.021975   1 C  s                12      1.556672   1 C  py        
    67     -1.507837   4 C  s                26     -0.946321   2 C  px        
   102      0.946967   6 C  px                8      0.913641   1 C  py        

 Vector  117  Occ=0.000000D+00  E= 4.935614D+00
              MO Center=  1.4D-04,  9.1D-01,  2.9D-05, r^2= 1.4D+00
   Bfn.  Coefficient  Atom+Function         Bfn.  Coefficient  Atom+Function  
  ----- ------------  ---------------      ----- ------------  ---------------
    71      1.467659   4 C  dxx              46     -1.348262   3 N  py        
    84     -1.348601   5 N  py               45     -1.306782   3 N  px        
    83      1.306372   5 N  px               65     -1.152167   4 C  py        
    52     -0.906182   3 N  dxx              90     -0.906055   5 N  dxx       
    41      0.627437   3 N  px               79     -0.627257   5 N  px        

 Vector  118  Occ=0.000000D+00  E= 5.095531D+00
              MO Center=  8.2D-04,  4.0D-01, -4.1D-05, r^2= 1.9D+00
   Bfn.  Coefficient  Atom+Function         Bfn.  Coefficient  Atom+Function  
  ----- ------------  ---------------      ----- ------------  ---------------
    55     -1.562158   3 N  dyy              93      1.563566   5 N  dyy       
    27      1.502062   2 C  py               64     -1.507820   4 C  px        
   103     -1.503090   6 C  py               72      1.386186   4 C  dxy       
     7     -1.186644   1 C  px               52     -1.162021   3 N  dxx       
    90      1.162444   5 N  dxx              44      0.947873   3 N  s         

 Vector  119  Occ=0.000000D+00  E= 5.098220D+00
              MO Center= -7.7D-04,  2.2D-01, -1.2D-04, r^2= 1.9D+00
   Bfn.  Coefficient  Atom+Function         Bfn.  Coefficient  Atom+Function  
  ----- ------------  ---------------      ----- ------------  ---------------
    55      1.501590   3 N  dyy              93      1.500341   5 N  dyy       
    46     -1.419854   3 N  py               84     -1.418985   5 N  py        
    27     -1.362554   2 C  py              103     -1.361297   6 C  py        
    36     -1.082087   2 C  dyy             112     -1.081426   6 C  dyy       
    44     -0.955123   3 N  s                82     -0.954359   5 N  s         

 Vector  120  Occ=0.000000D+00  E= 5.347205D+00
              MO Center=  1.2D-04,  6.0D-01, -5.5D-06, r^2= 1.8D+00
   Bfn.  Coefficient  Atom+Function         Bfn.  Coefficient  Atom+Function  
  ----- ------------  ---------------      ----- ------------  ---------------
    64      2.508015   4 C  px               72     -2.241248   4 C  dxy       
    46      1.849774   3 N  py               84     -1.850377   5 N  py        
    45      1.500258   3 N  px               83      1.499577   5 N  px        
     7     -1.430020   1 C  px               27      1.332927   2 C  py        
   103     -1.332889   6 C  py               15     -1.211712   1 C  dxy       

 Vector  121  Occ=0.000000D+00  E= 2.647166D+01
              MO Center=  2.1D-02,  2.0D-01, -6.4D-05, r^2= 1.9D+00
   Bfn.  Coefficient  Atom+Function         Bfn.  Coefficient  Atom+Function  
  ----- ------------  ---------------      ----- ------------  ---------------
    59      1.856909   4 C  s                58     -1.527514   4 C  s         
     2     -1.362025   1 C  s                 1      1.122000   1 C  s         
    97     -0.836151   6 C  s                63     -0.796092   4 C  s         
    21     -0.762569   2 C  s                96      0.688226   6 C  s         
     6      0.626922   1 C  s                20      0.627682   2 C  s         

 Vector  122  Occ=0.000000D+00  E= 2.647217D+01
              MO Center= -2.1D-02, -6.2D-01, -1.8D-04, r^2= 1.6D+00
   Bfn.  Coefficient  Atom+Function         Bfn.  Coefficient  Atom+Function  
  ----- ------------  ---------------      ----- ------------  ---------------
    21      1.830840   2 C  s                97     -1.798397   6 C  s         
    20     -1.506421   2 C  s                96      1.479717   6 C  s         
    25     -0.778642   2 C  s               101      0.764037   6 C  s         
    29     -0.567465   2 C  s               105      0.557090   6 C  s         
    36      0.499225   2 C  dyy             112     -0.492107   6 C  dyy       

 Vector  123  Occ=0.000000D+00  E= 2.655004D+01
              MO Center= -6.0D-06,  1.4D-01, -1.1D-04, r^2= 1.9D+00
   Bfn.  Coefficient  Atom+Function         Bfn.  Coefficient  Atom+Function  
  ----- ------------  ---------------      ----- ------------  ---------------
    59      1.692895   4 C  s                58     -1.387776   4 C  s         
    21      1.237154   2 C  s                97      1.237094   6 C  s         
    20     -1.014435   2 C  s                96     -1.014386   6 C  s         
    10     -0.963115   1 C  s                 2      0.851379   1 C  s         
    63     -0.732426   4 C  s                48     -0.728707   3 N  s         

 Vector  124  Occ=0.000000D+00  E= 2.668043D+01
              MO Center= -9.9D-05, -9.7D-01, -2.1D-04, r^2= 1.0D+00
   Bfn.  Coefficient  Atom+Function         Bfn.  Coefficient  Atom+Function  
  ----- ------------  ---------------      ----- ------------  ---------------
     2      2.020480   1 C  s                 1     -1.651219   1 C  s         
    10     -1.512420   1 C  s                21     -1.078914   2 C  s         
    97     -1.079032   6 C  s                29      0.885426   2 C  s         
   105      0.885517   6 C  s                20      0.880653   2 C  s         
    96      0.880750   6 C  s                 6     -0.779495   1 C  s         

 Vector  125  Occ=0.000000D+00  E= 3.967075D+01
              MO Center=  5.2D-04,  7.0D-01,  1.2D-05, r^2= 1.4D+00
   Bfn.  Coefficient  Atom+Function         Bfn.  Coefficient  Atom+Function  
  ----- ------------  ---------------      ----- ------------  ---------------
    40      1.874130   3 N  s                78      1.874806   5 N  s         
    39     -1.573543   3 N  s                77     -1.574111   5 N  s         
    48     -0.830580   3 N  s                86     -0.830808   5 N  s         
    44     -0.717032   3 N  s                82     -0.717291   5 N  s         
    55      0.502043   3 N  dyy              93      0.502243   5 N  dyy       

 Vector  126  Occ=0.000000D+00  E= 3.967221D+01
              MO Center= -3.1D-04,  7.0D-01,  1.4D-05, r^2= 1.4D+00
   Bfn.  Coefficient  Atom+Function         Bfn.  Coefficient  Atom+Function  
  ----- ------------  ---------------      ----- ------------  ---------------
    40      1.876039   3 N  s                78     -1.875362   5 N  s         
    39     -1.574682   3 N  s                77      1.574114   5 N  s         
    44     -0.712765   3 N  s                82      0.712508   5 N  s         
    48     -0.674803   3 N  s                86      0.674508   5 N  s         
    55      0.501435   3 N  dyy              93     -0.501279   5 N  dyy       


 center of mass
 --------------
 x =   0.00000682 y =   0.05364128 z =  -0.00007161

 moments of inertia (a.u.)
 ------------------
         286.611682558589           0.005383104316           0.008552262594
           0.005383104316         286.916858052418           0.004027925639
           0.008552262594           0.004027925639         573.528413715401

     Multipole analysis of the density
     ---------------------------------

     L   x y z        total         alpha         beta         nuclear
     -   - - -        -----         -----         ----         -------
     0   0 0 0     -0.000000    -21.000000    -21.000000     42.000000

     1   1 0 0     -0.000149     -0.000074     -0.000074      0.000000
     1   0 1 0     -0.861401     -0.430701     -0.430701      0.000000
     1   0 0 1      0.000823      0.000411      0.000411      0.000000

     2   2 0 0    -27.018860    -93.324320    -93.324320    159.629781
     2   1 1 0      0.000852      0.001077      0.001077     -0.001302
     2   1 0 1      0.000597      0.001869      0.001869     -0.003142
     2   0 2 0    -22.162567    -95.459403    -95.459403    168.756238
     2   0 1 1     -0.006644      0.005751      0.005751     -0.018145
     2   0 0 2    -26.519695    -13.259878    -13.259878      0.000060


 Parallel integral file used     471 records with       0 large values


            General Information
            -------------------
          SCF calculation type: DFT
          Wavefunction type:  closed shell.
          No. of atoms     :    10
          No. of electrons :    42
           Alpha electrons :    21
            Beta electrons :    21
          Charge           :     0
          Spin multiplicity:     1
          Use of symmetry is: off; symmetry adaption is: off
          Maximum number of iterations: 100
          AO basis - number of functions:   126
                     number of shells:    60
          Convergence on energy requested:  1.00D-07
          Convergence on density requested:  1.00D-05
          Convergence on gradient requested:  5.00D-04

              XC Information
              --------------
                         PBE0 Method XC Functional
                     Hartree-Fock (Exact) Exchange  0.250          
          PerdewBurkeErnzerhof Exchange Functional  0.750          
            Perdew 1991 LDA Correlation Functional  1.000 local    
           PerdewBurkeErnz. Correlation Functional  1.000 non-local

             Grid Information
             ----------------
          Grid used for XC integration:  fine      
          Radial quadrature: Mura-Knowles        
          Angular quadrature: Lebedev. 
          Tag              B.-S. Rad. Rad. Pts. Rad. Cut. Ang. Pts.
          ---              ---------- --------- --------- ---------
          C                   0.70       70          11.0       590
          N                   0.65       70          11.0       590
          H                   0.35       60          13.0       590
          Grid pruning is: on 
          Number of quadrature shells:   660
          Spatial weights used:  Erf1

          Convergence Information
          -----------------------
          Convergence aids based upon iterative change in 
          total energy or number of iterations. 
          Levelshifting, if invoked, occurs when the 
          HOMO/LUMO gap drops below (HL_TOL):  1.00D-02
          DIIS, if invoked, will attempt to extrapolate 
          using up to (NFOCK): 10 stored Fock matrices.

                    Damping( 0%)  Levelshifting(0.5)       DIIS
                  --------------- ------------------- ---------------
          dE  on:    start            ASAP                start   
          dE off:    2 iters        100 iters           100 iters 


      Screening Tolerance Information
      -------------------------------
          Density screening/tol_rho:  1.00D-10
          AO Gaussian exp screening on grid/accAOfunc:  16
          CD Gaussian exp screening on grid/accCDfunc:  20
          XC Gaussian exp screening on grid/accXCfunc:  20
          Schwarz screening/accCoul:  1.00D-08



                            NWChem DFT Gradient Module
                            --------------------------


             pyrimidine geometry optimization, PBE0/6-311G* Cartesian



  charge          =   0.00
  wavefunction    = closed shell



                         DFT ENERGY GRADIENTS

    atom               coordinates                        gradient
                 x          y          z           x          y          z
   1 C      -0.000373  -2.522748  -0.000445    0.000027   0.014539  -0.000303
   2 C      -2.249903  -1.181232  -0.000256   -0.026490  -0.006623   0.000023
   3 N      -2.175448   1.318498   0.000121    0.040256  -0.016446   0.000090
   4 C       0.000382   2.530190   0.000121   -0.000011   0.036719   0.000013
   5 N       2.175835   1.317742  -0.000067   -0.040252  -0.016457   0.000094
   6 C       2.249534  -1.181988  -0.000445    0.026435  -0.006621  -0.000024
   7 H      -0.000751  -4.563652   0.007491   -0.000000   0.004705   0.000208
   8 H      -4.039285  -2.162566  -0.001012    0.007308  -0.002947  -0.000042
   9 H       0.000760   4.571094  -0.000256    0.000000  -0.003907  -0.000039
  10 H       4.038727  -2.163889  -0.000445   -0.007273  -0.002962  -0.000019

                 ----------------------------------------
                 |  Time  |  1-e(secs)   |  2-e(secs)   |
                 ----------------------------------------
                 |  CPU   |       0.01   |       3.48   |
                 ----------------------------------------
                 |  WALL  |       0.01   |       3.48   |
                 ----------------------------------------

@ Step       Energy      Delta E   Gmax     Grms     Xrms     Xmax   Walltime
@ ---- ---------------- -------- -------- -------- -------- -------- --------
@    0    -264.06520042  0.0D+00  0.04026  0.01527  0.00000  0.00000     21.1
                                                                    


                                 NWChem DFT Module
                                 -----------------


             pyrimidine geometry optimization, PBE0/6-311G* Cartesian




 Summary of "ao basis" -> "ao basis" (cartesian)
 ------------------------------------------------------------------------------
       Tag                 Description            Shells   Functions and Types
 ---------------- ------------------------------  ------  ---------------------
 C                          6-311G*                  8       19   4s3p1d
 N                          6-311G*                  8       19   4s3p1d
 H                          6-311G*                  3        3   3s


  Caching 1-el integrals 

            General Information
            -------------------
          SCF calculation type: DFT
          Wavefunction type:  closed shell.
          No. of atoms     :    10
          No. of electrons :    42
           Alpha electrons :    21
            Beta electrons :    21
          Charge           :     0
          Spin multiplicity:     1
          Use of symmetry is: off; symmetry adaption is: off
          Maximum number of iterations: 100
          AO basis - number of functions:   126
                     number of shells:    60
          Convergence on energy requested:  1.00D-07
          Convergence on density requested:  1.00D-05
          Convergence on gradient requested:  5.00D-04

              XC Information
              --------------
                         PBE0 Method XC Functional
                     Hartree-Fock (Exact) Exchange  0.250          
          PerdewBurkeErnzerhof Exchange Functional  0.750          
            Perdew 1991 LDA Correlation Functional  1.000 local    
           PerdewBurkeErnz. Correlation Functional  1.000 non-local

             Grid Information
             ----------------
          Grid used for XC integration:  fine      
          Radial quadrature: Mura-Knowles        
          Angular quadrature: Lebedev. 
          Tag              B.-S. Rad. Rad. Pts. Rad. Cut. Ang. Pts.
          ---              ---------- --------- --------- ---------
          C                   0.70       70          11.0       590
          N                   0.65       70          11.0       590
          H                   0.35       60          13.0       590
          Grid pruning is: on 
          Number of quadrature shells:   660
          Spatial weights used:  Erf1

          Convergence Information
          -----------------------
          Convergence aids based upon iterative change in 
          total energy or number of iterations. 
          Levelshifting, if invoked, occurs when the 
          HOMO/LUMO gap drops below (HL_TOL):  1.00D-02
          DIIS, if invoked, will attempt to extrapolate 
          using up to (NFOCK): 10 stored Fock matrices.

                    Damping( 0%)  Levelshifting(0.5)       DIIS
                  --------------- ------------------- ---------------
          dE  on:    start            ASAP                start   
          dE off:    2 iters        100 iters           100 iters 


      Screening Tolerance Information
      -------------------------------
          Density screening/tol_rho:  1.00D-10
          AO Gaussian exp screening on grid/accAOfunc:  16
          CD Gaussian exp screening on grid/accCDfunc:  20
          XC Gaussian exp screening on grid/accXCfunc:  20
          Schwarz screening/accCoul:  1.00D-08


 Loading old vectors from job with title :

pyrimidine geometry optimization, PBE0/6-311G* Cartesian

   Time after variat. SCF:     21.1
   Time prior to 1st pass:     21.1

 Integral file          = /Users/bldrdge1/Downloads/repos/PlasMol/jobs/final/Step_1/pyrimidine/pyrimidine_opt.aoints.0
 Record size in doubles =  65536        No. of integs per rec  =  43688
 Max. records in memory =    995        Max. records in file   = 161647
 No. of bits per label  =      8        No. of bits per value  =     64


 #quartets = 1.346D+06 #integrals = 2.111D+07 #direct =  0.0% #cached =100.0%

  avail0,avail1,avail0-avail1                 85063                85063                    0
  avail0,avail1,avail0-avail1                 85063                85078                  -15
  avail0,avail1,avail0-avail1                 85063                85078                  -15
  avail0,avail1,avail0-avail1                 85063                85078                  -15

 Grid_pts file          = /Users/bldrdge1/Downloads/repos/PlasMol/jobs/final/Step_1/pyrimidine/pyrimidine_opt.gridpts.0
 Record size in doubles =  12289        No. of grid_pts per rec  =   3070
 Max. records in memory =    141        Max. recs in file   =    861902


           Memory utilization after 1st SCF pass: 
           Heap Space remaining (MW):       14.94            14938436
          Stack Space remaining (MW):       81.92            81919076

   convergence    iter        energy       DeltaE   RMS-Dens  Diis-err    time
 ---------------- ----- ----------------- --------- --------- ---------  ------
 d= 0,ls=0.0,diis     1   -264.0550410112 -4.73D+02  3.50D-03  6.32D-02    23.8
 d= 0,ls=0.0,diis     2   -264.0657122688 -1.07D-02  6.86D-04  3.46D-03    25.2
 d= 0,ls=0.0,diis     3   -264.0655647145  1.48D-04  3.68D-04  5.02D-03    26.6
 d= 0,ls=0.0,diis     4   -264.0661398461 -5.75D-04  9.10D-05  2.75D-04    28.0
 d= 0,ls=0.0,diis     5   -264.0661761585 -3.63D-05  1.88D-05  1.34D-05    29.4
 d= 0,ls=0.0,diis     6   -264.0661776251 -1.47D-06  5.84D-06  9.58D-07    30.7
 d= 0,ls=0.0,diis     7   -264.0661777423 -1.17D-07  1.70D-06  2.16D-07    32.2
 d= 0,ls=0.0,diis     8   -264.0661777653 -2.30D-08  2.87D-07  1.10D-09    33.6


         Total DFT energy =     -264.066177765325
      One electron energy =     -769.854940730341
           Coulomb energy =      333.416503872195
    Exchange-Corr. energy =      -36.686813712757
 Nuclear repulsion energy =      209.059072805578

 Numeric. integr. density =       42.000000768389

     Total iterative time =     12.5s



                       DFT Final Molecular Orbital Analysis
                       ------------------------------------

 Vector    1  Occ=2.000000D+00  E=-1.440137D+01
              MO Center= -2.5D-01,  7.3D-01, -2.2D-04, r^2= 1.5D+00
   Bfn.  Coefficient  Atom+Function         Bfn.  Coefficient  Atom+Function  
  ----- ------------  ---------------      ----- ------------  ---------------
    39      0.433018   3 N  s                40      0.358951   3 N  s         
    77     -0.352272   5 N  s                78     -0.292012   5 N  s         

 Vector    2  Occ=2.000000D+00  E=-1.440136D+01
              MO Center=  2.5D-01,  7.3D-01, -2.5D-04, r^2= 1.5D+00
   Bfn.  Coefficient  Atom+Function         Bfn.  Coefficient  Atom+Function  
  ----- ------------  ---------------      ----- ------------  ---------------
    77      0.433015   5 N  s                78      0.358969   5 N  s         
    39      0.352268   3 N  s                40      0.292035   3 N  s         

 Vector    3  Occ=2.000000D+00  E=-1.029966D+01
              MO Center=  2.0D-04,  1.3D+00,  2.4D-05, r^2= 2.8D-02
   Bfn.  Coefficient  Atom+Function         Bfn.  Coefficient  Atom+Function  
  ----- ------------  ---------------      ----- ------------  ---------------
    58      0.563901   4 C  s                59      0.460113   4 C  s         

 Vector    4  Occ=2.000000D+00  E=-1.028850D+01
              MO Center=  6.9D-02, -6.1D-01, -1.8D-04, r^2= 1.4D+00
   Bfn.  Coefficient  Atom+Function         Bfn.  Coefficient  Atom+Function  
  ----- ------------  ---------------      ----- ------------  ---------------
    96      0.410337   6 C  s                20      0.386687   2 C  s         
    97      0.334778   6 C  s                21      0.315480   2 C  s         

 Vector    5  Occ=2.000000D+00  E=-1.028849D+01
              MO Center= -6.9D-02, -6.1D-01, -1.8D-04, r^2= 1.4D+00
   Bfn.  Coefficient  Atom+Function         Bfn.  Coefficient  Atom+Function  
  ----- ------------  ---------------      ----- ------------  ---------------
    20      0.410365   2 C  s                96     -0.386717   6 C  s         
    21      0.334849   2 C  s                97     -0.315555   6 C  s         

 Vector    6  Occ=2.000000D+00  E=-1.025436D+01
              MO Center= -2.1D-04, -1.4D+00,  5.6D-04, r^2= 2.8D-02
   Bfn.  Coefficient  Atom+Function         Bfn.  Coefficient  Atom+Function  
  ----- ------------  ---------------      ----- ------------  ---------------
     1      0.563771   1 C  s                 2      0.459902   1 C  s         

 Vector    7  Occ=2.000000D+00  E=-1.027317D+00
              MO Center=  5.0D-05,  4.3D-01, -1.3D-04, r^2= 1.6D+00
   Bfn.  Coefficient  Atom+Function         Bfn.  Coefficient  Atom+Function  
  ----- ------------  ---------------      ----- ------------  ---------------
    44      0.263371   3 N  s                82      0.263364   5 N  s         
    63      0.241649   4 C  s                48      0.191016   3 N  s         
    86      0.191012   5 N  s                25      0.160185   2 C  s         
   101      0.160181   6 C  s                40     -0.098002   3 N  s         
    78     -0.097999   5 N  s                 6      0.094303   1 C  s         

 Vector    8  Occ=2.000000D+00  E=-9.319839D-01
              MO Center=  8.7D-05,  4.0D-01, -1.6D-04, r^2= 1.9D+00
   Bfn.  Coefficient  Atom+Function         Bfn.  Coefficient  Atom+Function  
  ----- ------------  ---------------      ----- ------------  ---------------
    44      0.320256   3 N  s                82     -0.320260   5 N  s         
    48      0.218016   3 N  s                86     -0.218020   5 N  s         
    25      0.185354   2 C  s               101     -0.185361   6 C  s         
    64     -0.120868   4 C  px               40     -0.116500   3 N  s         
    78      0.116501   5 N  s                60     -0.081145   4 C  px        

 Vector    9  Occ=2.000000D+00  E=-8.290403D-01
              MO Center= -8.9D-05, -5.6D-01,  2.7D-04, r^2= 2.1D+00
   Bfn.  Coefficient  Atom+Function         Bfn.  Coefficient  Atom+Function  
  ----- ------------  ---------------      ----- ------------  ---------------
     6      0.348924   1 C  s                63     -0.218552   4 C  s         
    25      0.205011   2 C  s               101      0.205006   6 C  s         
    10      0.144951   1 C  s                 2     -0.132272   1 C  s         
    29      0.108475   2 C  s               105      0.108472   6 C  s         
    44     -0.106178   3 N  s                82     -0.106184   5 N  s         

 Vector   10  Occ=2.000000D+00  E=-6.854780D-01
              MO Center=  1.8D-04, -3.0D-01, -3.8D-05, r^2= 3.0D+00
   Bfn.  Coefficient  Atom+Function         Bfn.  Coefficient  Atom+Function  
  ----- ------------  ---------------      ----- ------------  ---------------
    25      0.277218   2 C  s               101     -0.277277   6 C  s         
    29      0.175315   2 C  s               105     -0.175365   6 C  s         
    64      0.150614   4 C  px                7     -0.139814   1 C  px        
    44     -0.135726   3 N  s                82      0.135675   5 N  s         
    48     -0.112039   3 N  s                86      0.111999   5 N  s         

 Vector   11  Occ=2.000000D+00  E=-6.832865D-01
              MO Center= -1.9D-04,  1.8D-01,  1.0D-04, r^2= 3.0D+00
   Bfn.  Coefficient  Atom+Function         Bfn.  Coefficient  Atom+Function  
  ----- ------------  ---------------      ----- ------------  ---------------
    63      0.290313   4 C  s                 6      0.229397   1 C  s         
    10      0.189150   1 C  s                67      0.187970   4 C  s         
    46      0.127555   3 N  py               84      0.127532   5 N  py        
    25     -0.111481   2 C  s               101     -0.111337   6 C  s         
    27     -0.103451   2 C  py              103     -0.103455   6 C  py        

 Vector   12  Occ=2.000000D+00  E=-5.605282D-01
              MO Center= -2.9D-05, -2.8D-01,  9.7D-05, r^2= 3.8D+00
   Bfn.  Coefficient  Atom+Function         Bfn.  Coefficient  Atom+Function  
  ----- ------------  ---------------      ----- ------------  ---------------
    26      0.168993   2 C  px              102     -0.168974   6 C  px        
    65     -0.153223   4 C  py                8      0.146264   1 C  py        
    22      0.103753   2 C  px               98     -0.103743   6 C  px        
     4      0.096409   1 C  py              119     -0.096032   8 H  s         
   125     -0.096034  10 H  s                29     -0.089924   2 C  s         

 Vector   13  Occ=2.000000D+00  E=-5.376518D-01
              MO Center= -1.3D-05, -9.0D-02, -2.0D-05, r^2= 2.5D+00
   Bfn.  Coefficient  Atom+Function         Bfn.  Coefficient  Atom+Function  
  ----- ------------  ---------------      ----- ------------  ---------------
     7      0.189412   1 C  px               27      0.173045   2 C  py        
    64      0.173562   4 C  px              103     -0.173024   6 C  py        
    46     -0.164707   3 N  py               84      0.164738   5 N  py        
     3      0.124853   1 C  px               60      0.121628   4 C  px        
    23      0.118973   2 C  py               99     -0.118957   6 C  py        

 Vector   14  Occ=2.000000D+00  E=-4.942399D-01
              MO Center= -1.5D-04, -9.7D-01,  1.2D-03, r^2= 3.5D+00
   Bfn.  Coefficient  Atom+Function         Bfn.  Coefficient  Atom+Function  
  ----- ------------  ---------------      ----- ------------  ---------------
     8      0.253455   1 C  py              116     -0.194835   7 H  s         
     4      0.159941   1 C  py              115     -0.160212   7 H  s         
    12      0.150598   1 C  py               10     -0.140410   1 C  s         
    25      0.135769   2 C  s               101      0.135769   6 C  s         
    65      0.133385   4 C  py               48     -0.123385   3 N  s         

 Vector   15  Occ=2.000000D+00  E=-4.515793D-01
              MO Center=  3.2D-05,  2.4D-01, -4.9D-05, r^2= 2.4D+00
   Bfn.  Coefficient  Atom+Function         Bfn.  Coefficient  Atom+Function  
  ----- ------------  ---------------      ----- ------------  ---------------
    47      0.184875   3 N  pz               85      0.184872   5 N  pz        
    66      0.183183   4 C  pz               28      0.149452   2 C  pz        
   104      0.149450   6 C  pz               51      0.128011   3 N  pz        
    70      0.127677   4 C  pz               89      0.128009   5 N  pz        
     9      0.124536   1 C  pz               43      0.116078   3 N  pz        

 Vector   16  Occ=2.000000D+00  E=-4.312780D-01
              MO Center=  3.1D-05, -5.0D-01, -1.6D-04, r^2= 3.4D+00
   Bfn.  Coefficient  Atom+Function         Bfn.  Coefficient  Atom+Function  
  ----- ------------  ---------------      ----- ------------  ---------------
    26      0.217341   2 C  px              102      0.217335   6 C  px        
     7     -0.150013   1 C  px               30      0.142621   2 C  px        
   106      0.142612   6 C  px              119     -0.143127   8 H  s         
   125      0.143150  10 H  s                22      0.139523   2 C  px        
    98      0.139521   6 C  px              118     -0.110879   8 H  s         

 Vector   17  Occ=2.000000D+00  E=-4.166464D-01
              MO Center= -4.0D-05,  4.3D-01, -1.7D-04, r^2= 3.7D+00
   Bfn.  Coefficient  Atom+Function         Bfn.  Coefficient  Atom+Function  
  ----- ------------  ---------------      ----- ------------  ---------------
    65      0.249479   4 C  py               69      0.164775   4 C  py        
    10      0.163802   1 C  s                61      0.154233   4 C  py        
    45     -0.146907   3 N  px               83      0.146904   5 N  px        
   122      0.135214   9 H  s               119     -0.122385   8 H  s         
   125     -0.122357  10 H  s                63     -0.110724   4 C  s         

 Vector   18  Occ=2.000000D+00  E=-3.396680D-01
              MO Center=  4.6D-05,  2.2D-01, -1.8D-04, r^2= 2.7D+00
   Bfn.  Coefficient  Atom+Function         Bfn.  Coefficient  Atom+Function  
  ----- ------------  ---------------      ----- ------------  ---------------
    47      0.236906   3 N  pz               85     -0.236902   5 N  pz        
    51      0.212953   3 N  pz               89     -0.212950   5 N  pz        
    28      0.188181   2 C  pz              104     -0.188189   6 C  pz        
    32      0.164118   2 C  pz              108     -0.164124   6 C  pz        
    43      0.152510   3 N  pz               81     -0.152508   5 N  pz        

 Vector   19  Occ=2.000000D+00  E=-3.298036D-01
              MO Center=  7.6D-05,  7.8D-01,  1.3D-04, r^2= 3.2D+00
   Bfn.  Coefficient  Atom+Function         Bfn.  Coefficient  Atom+Function  
  ----- ------------  ---------------      ----- ------------  ---------------
    48      0.260240   3 N  s                86      0.260227   5 N  s         
    44      0.183483   3 N  s                46      0.184020   3 N  py        
    82      0.183475   5 N  s                84      0.183983   5 N  py        
    50      0.176390   3 N  py               88      0.176350   5 N  py        
   122     -0.162036   9 H  s                42      0.130474   3 N  py        

 Vector   20  Occ=2.000000D+00  E=-3.081900D-01
              MO Center= -4.5D-05, -3.1D-01, -9.4D-05, r^2= 2.7D+00
   Bfn.  Coefficient  Atom+Function         Bfn.  Coefficient  Atom+Function  
  ----- ------------  ---------------      ----- ------------  ---------------
     9      0.268746   1 C  pz               13      0.256167   1 C  pz        
    66     -0.215167   4 C  pz               70     -0.193732   4 C  pz        
     5      0.165583   1 C  pz               28      0.143861   2 C  pz        
   104      0.143853   6 C  pz               62     -0.131851   4 C  pz        
    47     -0.116180   3 N  pz               85     -0.116191   5 N  pz        

 Vector   21  Occ=2.000000D+00  E=-2.858565D-01
              MO Center=  1.5D-04,  5.0D-01, -3.1D-04, r^2= 3.4D+00
   Bfn.  Coefficient  Atom+Function         Bfn.  Coefficient  Atom+Function  
  ----- ------------  ---------------      ----- ------------  ---------------
    49      0.254774   3 N  px               87      0.254813   5 N  px        
    45      0.239356   3 N  px               83      0.239392   5 N  px        
    11      0.192166   1 C  px               41      0.165943   3 N  px        
    79      0.165967   5 N  px               64     -0.142955   4 C  px        
    44     -0.131773   3 N  s                82      0.131783   5 N  s         

 Vector   22  Occ=0.000000D+00  E=-4.608421D-02
              MO Center= -1.6D-05, -1.5D-01, -2.6D-04, r^2= 3.1D+00
   Bfn.  Coefficient  Atom+Function         Bfn.  Coefficient  Atom+Function  
  ----- ------------  ---------------      ----- ------------  ---------------
    32      0.422333   2 C  pz              108     -0.422345   6 C  pz        
    51     -0.345369   3 N  pz               89      0.345360   5 N  pz        
    28      0.253661   2 C  pz              104     -0.253666   6 C  pz        
    47     -0.197773   3 N  pz               85      0.197766   5 N  pz        
    24      0.159252   2 C  pz              100     -0.159256   6 C  pz        

 Vector   23  Occ=0.000000D+00  E=-3.067763D-02
              MO Center=  2.0D-05,  1.3D-01, -6.4D-05, r^2= 3.2D+00
   Bfn.  Coefficient  Atom+Function         Bfn.  Coefficient  Atom+Function  
  ----- ------------  ---------------      ----- ------------  ---------------
    13      0.506895   1 C  pz               70      0.475581   4 C  pz        
    66      0.302721   4 C  pz               32     -0.288176   2 C  pz        
   108     -0.288156   6 C  pz                9      0.226562   1 C  pz        
    51     -0.199732   3 N  pz               89     -0.199749   5 N  pz        
    62      0.185402   4 C  pz                5      0.152157   1 C  pz        

 Vector   24  Occ=0.000000D+00  E= 5.368163D-02
              MO Center= -3.1D-04, -1.9D+00,  2.1D-03, r^2= 6.7D+00
   Bfn.  Coefficient  Atom+Function         Bfn.  Coefficient  Atom+Function  
  ----- ------------  ---------------      ----- ------------  ---------------
   117      1.284483   7 H  s                10     -0.848875   1 C  s         
   120      0.849768   8 H  s               126      0.849765  10 H  s         
    29     -0.657676   2 C  s               105     -0.657683   6 C  s         
    12      0.576990   1 C  py              123      0.288448   9 H  s         
    30      0.271229   2 C  px              106     -0.271186   6 C  px        

 Vector   25  Occ=0.000000D+00  E= 9.399650D-02
              MO Center= -1.1D-04, -1.4D+00, -3.2D-04, r^2= 9.3D+00
   Bfn.  Coefficient  Atom+Function         Bfn.  Coefficient  Atom+Function  
  ----- ------------  ---------------      ----- ------------  ---------------
   120      1.526836   8 H  s               126     -1.526898  10 H  s         
    29     -1.151666   2 C  s               105      1.151660   6 C  s         
    30      0.677123   2 C  px              106      0.677058   6 C  px        
    31      0.358179   2 C  py              107     -0.358404   6 C  py        
    11     -0.343705   1 C  px               25     -0.124007   2 C  s         

 Vector   26  Occ=0.000000D+00  E= 1.032148D-01
              MO Center=  3.3D-04,  2.0D+00,  7.3D-04, r^2= 6.9D+00
   Bfn.  Coefficient  Atom+Function         Bfn.  Coefficient  Atom+Function  
  ----- ------------  ---------------      ----- ------------  ---------------
   123      1.943511   9 H  s                67     -1.046259   4 C  s         
    69     -1.001738   4 C  py              117     -0.906985   7 H  s         
    12     -0.549488   1 C  py               10      0.439840   1 C  s         
    48     -0.241822   3 N  s                86     -0.241815   5 N  s         
   120      0.192240   8 H  s               126      0.192167  10 H  s         

 Vector   27  Occ=0.000000D+00  E= 1.203333D-01
              MO Center= -2.8D-04, -1.3D+00,  2.0D-03, r^2= 9.7D+00
   Bfn.  Coefficient  Atom+Function         Bfn.  Coefficient  Atom+Function  
  ----- ------------  ---------------      ----- ------------  ---------------
   117      1.686923   7 H  s               120     -1.220541   8 H  s         
   126     -1.220457  10 H  s                12      1.151227   1 C  py        
   123      0.817813   9 H  s                10     -0.710154   1 C  s         
    30     -0.641459   2 C  px              106      0.641246   6 C  px        
    31     -0.609624   2 C  py              107     -0.609800   6 C  py        

 Vector   28  Occ=0.000000D+00  E= 1.268680D-01
              MO Center= -2.0D-06, -5.9D-02, -1.2D-03, r^2= 3.4D+00
   Bfn.  Coefficient  Atom+Function         Bfn.  Coefficient  Atom+Function  
  ----- ------------  ---------------      ----- ------------  ---------------
    13      0.638520   1 C  pz               32     -0.553807   2 C  pz        
   108     -0.553811   6 C  pz               70     -0.474854   4 C  pz        
    51      0.470330   3 N  pz               89      0.470331   5 N  pz        
    47      0.216893   3 N  pz               85      0.216894   5 N  pz        
     9      0.215189   1 C  pz               66     -0.191482   4 C  pz        

 Vector   29  Occ=0.000000D+00  E= 2.065406D-01
              MO Center= -1.8D-04,  1.8D-02,  2.4D-04, r^2= 4.7D+00
   Bfn.  Coefficient  Atom+Function         Bfn.  Coefficient  Atom+Function  
  ----- ------------  ---------------      ----- ------------  ---------------
    48      2.050655   3 N  s                86      2.050052   5 N  s         
    67     -2.033524   4 C  s                10     -1.446578   1 C  s         
    31     -0.998343   2 C  py              107     -0.997947   6 C  py        
    69      0.962625   4 C  py               29     -0.697469   2 C  s         
   105     -0.696796   6 C  s                30      0.665320   2 C  px        

 Vector   30  Occ=0.000000D+00  E= 2.093986D-01
              MO Center=  1.4D-04, -3.5D-01,  2.3D-04, r^2= 4.8D+00
   Bfn.  Coefficient  Atom+Function         Bfn.  Coefficient  Atom+Function  
  ----- ------------  ---------------      ----- ------------  ---------------
    29      1.959875   2 C  s               105     -1.960045   6 C  s         
    48     -1.829349   3 N  s                86      1.830040   5 N  s         
    11      1.262483   1 C  px               68     -0.974162   4 C  px        
    30      0.680926   2 C  px              106      0.680449   6 C  px        
    31      0.661754   2 C  py              107     -0.662318   6 C  py        

 Vector   31  Occ=0.000000D+00  E= 2.784697D-01
              MO Center= -1.0D-04, -9.6D-01,  2.9D-04, r^2= 4.3D+00
   Bfn.  Coefficient  Atom+Function         Bfn.  Coefficient  Atom+Function  
  ----- ------------  ---------------      ----- ------------  ---------------
    67      1.680709   4 C  s                10     -1.469585   1 C  s         
    12     -0.845791   1 C  py              116     -0.824608   7 H  s         
    31     -0.670010   2 C  py              107     -0.669805   6 C  py        
    29      0.612273   2 C  s               105      0.612330   6 C  s         
    30      0.606774   2 C  px              106     -0.607031   6 C  px        

 Vector   32  Occ=0.000000D+00  E= 3.076372D-01
              MO Center=  3.6D-06,  2.3D-01,  4.4D-04, r^2= 5.6D+00
   Bfn.  Coefficient  Atom+Function         Bfn.  Coefficient  Atom+Function  
  ----- ------------  ---------------      ----- ------------  ---------------
    68      2.332188   4 C  px               11      1.979746   1 C  px        
    48      1.878547   3 N  s                86     -1.878507   5 N  s         
    29      1.320801   2 C  s               105     -1.320811   6 C  s         
    31     -0.575962   2 C  py              107      0.575854   6 C  py        
    30      0.475318   2 C  px               49      0.476830   3 N  px        

 Vector   33  Occ=0.000000D+00  E= 3.149379D-01
              MO Center= -4.7D-06, -1.7D-01, -7.4D-04, r^2= 4.2D+00
   Bfn.  Coefficient  Atom+Function         Bfn.  Coefficient  Atom+Function  
  ----- ------------  ---------------      ----- ------------  ---------------
    29     -3.742563   2 C  s               105     -3.742737   6 C  s         
    10      3.638997   1 C  s                12      2.718200   1 C  py        
    30     -1.642409   2 C  px              106      1.642305   6 C  px        
   117      1.139029   7 H  s                48      1.089918   3 N  s         
    86      1.089984   5 N  s                50     -0.818833   3 N  py        

 Vector   34  Occ=0.000000D+00  E= 3.506044D-01
              MO Center=  1.2D-04, -6.0D-01,  1.3D-03, r^2= 5.0D+00
   Bfn.  Coefficient  Atom+Function         Bfn.  Coefficient  Atom+Function  
  ----- ------------  ---------------      ----- ------------  ---------------
    10      5.396397   1 C  s                67     -2.608855   4 C  s         
    12      2.096560   1 C  py               30     -1.929844   2 C  px        
   106      1.930560   6 C  px               29     -1.479528   2 C  s         
   105     -1.479676   6 C  s                31      1.039712   2 C  py        
   107      1.039686   6 C  py              117      1.014288   7 H  s         

 Vector   35  Occ=0.000000D+00  E= 3.526929D-01
              MO Center= -2.0D-04,  1.9D-01, -5.2D-04, r^2= 6.5D+00
   Bfn.  Coefficient  Atom+Function         Bfn.  Coefficient  Atom+Function  
  ----- ------------  ---------------      ----- ------------  ---------------
    31     -2.360762   2 C  py              107      2.360023   6 C  py        
    68     -2.324690   4 C  px               11      2.209506   1 C  px        
    30      1.391988   2 C  px              106      1.392260   6 C  px        
    50     -1.030789   3 N  py               88      1.030850   5 N  py        
    49     -0.622217   3 N  px               87     -0.621712   5 N  px        

 Vector   36  Occ=0.000000D+00  E= 3.851608D-01
              MO Center= -6.0D-05, -4.5D-01,  6.4D-04, r^2= 3.8D+00
   Bfn.  Coefficient  Atom+Function         Bfn.  Coefficient  Atom+Function  
  ----- ------------  ---------------      ----- ------------  ---------------
    32      0.500397   2 C  pz              108      0.500405   6 C  pz        
    70      0.469990   4 C  pz               28     -0.450478   2 C  pz        
   104     -0.450481   6 C  pz                9     -0.433302   1 C  pz        
    13      0.393494   1 C  pz               66     -0.386071   4 C  pz        
    24     -0.118190   2 C  pz              100     -0.118191   6 C  pz        

 Vector   37  Occ=0.000000D+00  E= 4.032669D-01
              MO Center= -1.5D-04, -7.8D-01,  7.8D-04, r^2= 4.3D+00
   Bfn.  Coefficient  Atom+Function         Bfn.  Coefficient  Atom+Function  
  ----- ------------  ---------------      ----- ------------  ---------------
    29      2.298903   2 C  s               105     -2.298703   6 C  s         
    68      1.078580   4 C  px               11      0.844254   1 C  px        
    30      0.847480   2 C  px              106      0.847524   6 C  px        
   119     -0.719591   8 H  s               125      0.719630  10 H  s         
    48      0.621340   3 N  s                86     -0.621315   5 N  s         

 Vector   38  Occ=0.000000D+00  E= 4.134449D-01
              MO Center=  2.6D-04,  1.4D+00,  3.5D-04, r^2= 3.7D+00
   Bfn.  Coefficient  Atom+Function         Bfn.  Coefficient  Atom+Function  
  ----- ------------  ---------------      ----- ------------  ---------------
   122      1.492502   9 H  s                29      1.456003   2 C  s         
   105      1.456348   6 C  s                67     -1.216123   4 C  s         
    10     -0.998120   1 C  s               123     -0.785196   9 H  s         
    12     -0.616651   1 C  py               30      0.507948   2 C  px        
   106     -0.507998   6 C  px               65     -0.391089   4 C  py        

 Vector   39  Occ=0.000000D+00  E= 4.394223D-01
              MO Center= -1.5D-04, -9.1D-01, -1.5D-04, r^2= 4.7D+00
   Bfn.  Coefficient  Atom+Function         Bfn.  Coefficient  Atom+Function  
  ----- ------------  ---------------      ----- ------------  ---------------
    10      1.347167   1 C  s                67      0.867375   4 C  s         
   119      0.748512   8 H  s               125      0.748467  10 H  s         
   116     -0.636530   7 H  s               120     -0.625378   8 H  s         
   126     -0.625363  10 H  s                29     -0.439622   2 C  s         
   105     -0.439386   6 C  s                25     -0.402375   2 C  s         

 Vector   40  Occ=0.000000D+00  E= 4.465840D-01
              MO Center=  8.9D-05,  5.8D-01, -3.4D-06, r^2= 4.3D+00
   Bfn.  Coefficient  Atom+Function         Bfn.  Coefficient  Atom+Function  
  ----- ------------  ---------------      ----- ------------  ---------------
    70      1.207701   4 C  pz               66     -0.738854   4 C  pz        
    13     -0.688993   1 C  pz                9      0.448358   1 C  pz        
    62     -0.182519   4 C  pz                5      0.106102   1 C  pz        
    28      0.102788   2 C  pz              104      0.102779   6 C  pz        
    51     -0.099303   3 N  pz               89     -0.099304   5 N  pz        

 Vector   41  Occ=0.000000D+00  E= 4.559051D-01
              MO Center= -9.6D-05, -6.9D-01, -9.7D-04, r^2= 4.3D+00
   Bfn.  Coefficient  Atom+Function         Bfn.  Coefficient  Atom+Function  
  ----- ------------  ---------------      ----- ------------  ---------------
    32      1.036001   2 C  pz              108     -1.036006   6 C  pz        
    28     -0.626207   2 C  pz              104      0.626209   6 C  pz        
    24     -0.153159   2 C  pz              100      0.153159   6 C  pz        
    16      0.076555   1 C  dxz              51     -0.076552   3 N  pz        
    89      0.076555   5 N  pz               35     -0.070443   2 C  dxz       

 Vector   42  Occ=0.000000D+00  E= 5.269488D-01
              MO Center=  1.7D-04,  4.5D-01, -2.8D-04, r^2= 3.7D+00
   Bfn.  Coefficient  Atom+Function         Bfn.  Coefficient  Atom+Function  
  ----- ------------  ---------------      ----- ------------  ---------------
    48     -1.035050   3 N  s                86      1.035115   5 N  s         
    31      1.008055   2 C  py              107     -1.008134   6 C  py        
    68     -0.921562   4 C  px               29      0.822243   2 C  s         
   105     -0.822176   6 C  s                11     -0.730390   1 C  px        
    25     -0.604215   2 C  s               101      0.604236   6 C  s         

 Vector   43  Occ=0.000000D+00  E= 5.331003D-01
              MO Center= -1.3D-04, -8.5D-01, -9.6D-04, r^2= 4.6D+00
   Bfn.  Coefficient  Atom+Function         Bfn.  Coefficient  Atom+Function  
  ----- ------------  ---------------      ----- ------------  ---------------
    13      1.659945   1 C  pz               32     -1.128817   2 C  pz        
   108     -1.128812   6 C  pz                9     -0.652797   1 C  pz        
    70      0.545848   4 C  pz               28      0.427869   2 C  pz        
   104      0.427867   6 C  pz               66     -0.274461   4 C  pz        
     5     -0.174032   1 C  pz               24      0.115730   2 C  pz        

 Vector   44  Occ=0.000000D+00  E= 5.355757D-01
              MO Center= -1.4D-04, -9.6D-01,  1.7D-04, r^2= 5.3D+00
   Bfn.  Coefficient  Atom+Function         Bfn.  Coefficient  Atom+Function  
  ----- ------------  ---------------      ----- ------------  ---------------
    11      3.800367   1 C  px               30      1.744792   2 C  px        
   106      1.745191   6 C  px               31     -1.676995   2 C  py        
   107      1.676436   6 C  py               29      1.462459   2 C  s         
   105     -1.462141   6 C  s                68     -1.332780   4 C  px        
   120      1.078209   8 H  s               126     -1.078197  10 H  s         

 Vector   45  Occ=0.000000D+00  E= 5.578676D-01
              MO Center= -9.3D-05,  8.7D-02,  1.3D-04, r^2= 4.5D+00
   Bfn.  Coefficient  Atom+Function         Bfn.  Coefficient  Atom+Function  
  ----- ------------  ---------------      ----- ------------  ---------------
    67      1.962604   4 C  s                48     -1.344672   3 N  s         
    86     -1.344585   5 N  s                31      0.922711   2 C  py        
   107      0.922310   6 C  py               63     -0.867431   4 C  s         
    30     -0.844574   2 C  px              106      0.844791   6 C  px        
    10      0.816768   1 C  s                69     -0.703339   4 C  py        

 Vector   46  Occ=0.000000D+00  E= 5.912307D-01
              MO Center= -8.3D-06,  1.2D-01,  6.8D-04, r^2= 7.6D+00
   Bfn.  Coefficient  Atom+Function         Bfn.  Coefficient  Atom+Function  
  ----- ------------  ---------------      ----- ------------  ---------------
    10      2.121388   1 C  s                69     -1.979311   4 C  py        
   123      1.597095   9 H  s                67     -1.587538   4 C  s         
    30     -1.333598   2 C  px              106      1.333462   6 C  px        
   120     -0.927908   8 H  s               126     -0.927860  10 H  s         
   117     -0.832610   7 H  s                29      0.674927   2 C  s         

 Vector   47  Occ=0.000000D+00  E= 6.278422D-01
              MO Center= -1.1D-04, -9.5D-01,  1.6D-03, r^2= 5.4D+00
   Bfn.  Coefficient  Atom+Function         Bfn.  Coefficient  Atom+Function  
  ----- ------------  ---------------      ----- ------------  ---------------
    12      3.294110   1 C  py              117      1.984379   7 H  s         
    69     -1.567184   4 C  py               29     -1.387345   2 C  s         
   105     -1.387003   6 C  s                67     -1.361620   4 C  s         
    30     -1.327156   2 C  px              106      1.327057   6 C  px        
   123      1.073353   9 H  s                 8     -0.845442   1 C  py        

 Vector   48  Occ=0.000000D+00  E= 6.335167D-01
              MO Center= -6.4D-05, -3.1D-01, -3.0D-04, r^2= 5.5D+00
   Bfn.  Coefficient  Atom+Function         Bfn.  Coefficient  Atom+Function  
  ----- ------------  ---------------      ----- ------------  ---------------
    29      2.809419   2 C  s               105     -2.809655   6 C  s         
    11      2.394200   1 C  px               31     -1.987697   2 C  py        
   107      1.987759   6 C  py              120     -1.102339   8 H  s         
   126      1.102322  10 H  s                25     -0.771157   2 C  s         
   101      0.771156   6 C  s                30     -0.691428   2 C  px        

 Vector   49  Occ=0.000000D+00  E= 6.591879D-01
              MO Center= -7.7D-05,  7.5D-01,  2.7D-04, r^2= 5.2D+00
   Bfn.  Coefficient  Atom+Function         Bfn.  Coefficient  Atom+Function  
  ----- ------------  ---------------      ----- ------------  ---------------
    12      2.029536   1 C  py               30     -1.089145   2 C  px        
   106      1.088971   6 C  px               49      1.056473   3 N  px        
    87     -1.056544   5 N  px               50     -1.020771   3 N  py        
    88     -1.020481   5 N  py               29     -1.004682   2 C  s         
   105     -1.004666   6 C  s                48      0.993361   3 N  s         

 Vector   50  Occ=0.000000D+00  E= 6.820030D-01
              MO Center=  2.1D-04, -6.6D-02, -5.5D-05, r^2= 4.6D+00
   Bfn.  Coefficient  Atom+Function         Bfn.  Coefficient  Atom+Function  
  ----- ------------  ---------------      ----- ------------  ---------------
    29      1.920479   2 C  s               105     -1.920417   6 C  s         
    11      1.576207   1 C  px               49      1.027378   3 N  px        
    87      1.027543   5 N  px                7     -0.583408   1 C  px        
    64      0.507687   4 C  px               25     -0.469647   2 C  s         
   101      0.469722   6 C  s                31     -0.268276   2 C  py        

 Vector   51  Occ=0.000000D+00  E= 6.988770D-01
              MO Center= -2.2D-05,  5.2D-02, -8.4D-05, r^2= 5.6D+00
   Bfn.  Coefficient  Atom+Function         Bfn.  Coefficient  Atom+Function  
  ----- ------------  ---------------      ----- ------------  ---------------
    67     -1.510050   4 C  s                30      1.477177   2 C  px        
   106     -1.476919   6 C  px               69     -1.269865   4 C  py        
   120      1.087751   8 H  s               126      1.087714  10 H  s         
    29     -1.026989   2 C  s               105     -1.026639   6 C  s         
   123      1.028836   9 H  s                31      0.988993   2 C  py        

 Vector   52  Occ=0.000000D+00  E= 6.993778D-01
              MO Center=  1.1D-04,  7.5D-01, -1.5D-04, r^2= 3.9D+00
   Bfn.  Coefficient  Atom+Function         Bfn.  Coefficient  Atom+Function  
  ----- ------------  ---------------      ----- ------------  ---------------
    51      1.090986   3 N  pz               89     -1.090964   5 N  pz        
    47     -0.610774   3 N  pz               85      0.610765   5 N  pz        
    32     -0.494417   2 C  pz              108      0.494407   6 C  pz        
    43     -0.170086   3 N  pz               81      0.170084   5 N  pz        
    73      0.123125   4 C  dxz              28      0.080370   2 C  pz        

 Vector   53  Occ=0.000000D+00  E= 7.680249D-01
              MO Center= -3.5D-03, -8.0D-01,  3.3D-04, r^2= 4.2D+00
   Bfn.  Coefficient  Atom+Function         Bfn.  Coefficient  Atom+Function  
  ----- ------------  ---------------      ----- ------------  ---------------
    10      8.656100   1 C  s                29     -4.335625   2 C  s         
   105     -4.316271   6 C  s                31      1.505219   2 C  py        
   107      1.495277   6 C  py               30     -1.464193   2 C  px        
   106      1.461499   6 C  px                6     -1.446398   1 C  s         
    69      1.322664   4 C  py               12      1.216524   1 C  py        

 Vector   54  Occ=0.000000D+00  E= 7.682294D-01
              MO Center=  3.4D-03, -1.8D-01,  3.5D-04, r^2= 5.4D+00
   Bfn.  Coefficient  Atom+Function         Bfn.  Coefficient  Atom+Function  
  ----- ------------  ---------------      ----- ------------  ---------------
    29      4.580161   2 C  s               105     -4.598321   6 C  s         
    11      4.220058   1 C  px               31     -2.250668   2 C  py        
   107      2.256641   6 C  py               50      0.925721   3 N  py        
    88     -0.927843   5 N  py               68      0.900452   4 C  px        
    49     -0.800830   3 N  px               87     -0.803974   5 N  px        

 Vector   55  Occ=0.000000D+00  E= 7.883369D-01
              MO Center= -2.4D-05, -2.0D-01, -2.0D-02, r^2= 4.8D+00
   Bfn.  Coefficient  Atom+Function         Bfn.  Coefficient  Atom+Function  
  ----- ------------  ---------------      ----- ------------  ---------------
    12      3.728786   1 C  py               69      2.845035   4 C  py        
   116      1.509959   7 H  s                67     -1.213263   4 C  s         
   122     -1.033837   9 H  s               117      1.013429   7 H  s         
    48      0.873001   3 N  s                86      0.872969   5 N  s         
    10      0.862988   1 C  s               123     -0.786952   9 H  s         

 Vector   56  Occ=0.000000D+00  E= 7.959336D-01
              MO Center=  1.2D-04,  7.1D-01,  1.8D-02, r^2= 4.5D+00
   Bfn.  Coefficient  Atom+Function         Bfn.  Coefficient  Atom+Function  
  ----- ------------  ---------------      ----- ------------  ---------------
    51      1.494076   3 N  pz               89      1.494085   5 N  pz        
    70     -1.036771   4 C  pz               32     -0.751806   2 C  pz        
   108     -0.751805   6 C  pz               13      0.676912   1 C  pz        
    47     -0.619768   3 N  pz               85     -0.619776   5 N  pz        
    43     -0.159281   3 N  pz               81     -0.159284   5 N  pz        

 Vector   57  Occ=0.000000D+00  E= 8.340726D-01
              MO Center=  1.9D-05, -1.4D-01,  3.1D-04, r^2= 5.3D+00
   Bfn.  Coefficient  Atom+Function         Bfn.  Coefficient  Atom+Function  
  ----- ------------  ---------------      ----- ------------  ---------------
    30      3.779229   2 C  px              106      3.778973   6 C  px        
    31      1.729553   2 C  py              107     -1.730730   6 C  py        
    29      1.560269   2 C  s               105     -1.560806   6 C  s         
   119      1.414631   8 H  s               125     -1.414659  10 H  s         
    68      1.150351   4 C  px              120      1.004745   8 H  s         

 Vector   58  Occ=0.000000D+00  E= 8.897122D-01
              MO Center=  3.3D-05,  1.6D-01, -7.6D-04, r^2= 5.4D+00
   Bfn.  Coefficient  Atom+Function         Bfn.  Coefficient  Atom+Function  
  ----- ------------  ---------------      ----- ------------  ---------------
    67      5.887089   4 C  s                12      5.789403   1 C  py        
    29     -5.463166   2 C  s               105     -5.463240   6 C  s         
    10      4.191419   1 C  s                31     -2.783195   2 C  py        
   107     -2.783735   6 C  py               30     -1.986705   2 C  px        
   106      1.985750   6 C  px               69     -1.897498   4 C  py        

 Vector   59  Occ=0.000000D+00  E= 1.007828D+00
              MO Center= -5.6D-05,  4.2D-01, -3.1D-04, r^2= 5.4D+00
   Bfn.  Coefficient  Atom+Function         Bfn.  Coefficient  Atom+Function  
  ----- ------------  ---------------      ----- ------------  ---------------
    68      3.835531   4 C  px               31      3.559397   2 C  py        
    50      3.552234   3 N  py               88     -3.552595   5 N  py        
   107     -3.558858   6 C  py               11     -3.262521   1 C  px        
    49      1.708644   3 N  px               87      1.707327   5 N  px        
    30     -1.634814   2 C  px              106     -1.635202   6 C  px        

 Vector   60  Occ=0.000000D+00  E= 1.023921D+00
              MO Center=  1.7D-04,  3.7D-01, -6.5D-04, r^2= 5.7D+00
   Bfn.  Coefficient  Atom+Function         Bfn.  Coefficient  Atom+Function  
  ----- ------------  ---------------      ----- ------------  ---------------
    10      9.625202   1 C  s                12      5.686574   1 C  py        
    30     -5.158293   2 C  px              106      5.158192   6 C  px        
    29     -4.799184   2 C  s               105     -4.799082   6 C  s         
    69     -4.574071   4 C  py               50      1.676291   3 N  py        
    88      1.677098   5 N  py              122      1.584972   9 H  s         

 Vector   61  Occ=0.000000D+00  E= 1.034414D+00
              MO Center= -6.5D-05, -4.8D-01,  2.5D-04, r^2= 2.3D+00
   Bfn.  Coefficient  Atom+Function         Bfn.  Coefficient  Atom+Function  
  ----- ------------  ---------------      ----- ------------  ---------------
    18      0.813711   1 C  dyz              35      0.704466   2 C  dxz       
   111     -0.704359   6 C  dxz              75     -0.641808   4 C  dyz       
    37      0.350134   2 C  dyz             113      0.350322   6 C  dyz       
    10     -0.155236   1 C  s                 9     -0.149280   1 C  pz        
    13      0.141311   1 C  pz               54      0.140606   3 N  dxz       

 Vector   62  Occ=0.000000D+00  E= 1.059304D+00
              MO Center= -7.2D-05, -4.4D-01, -3.3D-04, r^2= 2.3D+00
   Bfn.  Coefficient  Atom+Function         Bfn.  Coefficient  Atom+Function  
  ----- ------------  ---------------      ----- ------------  ---------------
    16      0.771523   1 C  dxz              37      0.577872   2 C  dyz       
   113     -0.577747   6 C  dyz              73      0.540400   4 C  dxz       
    35     -0.429869   2 C  dxz             111     -0.430028   6 C  dxz       
    56     -0.209340   3 N  dyz              94      0.209377   5 N  dyz       
    54     -0.115194   3 N  dxz              92     -0.115126   5 N  dxz       

 Vector   63  Occ=0.000000D+00  E= 1.135253D+00
              MO Center=  2.9D-04,  8.4D-01,  3.1D-05, r^2= 4.0D+00
   Bfn.  Coefficient  Atom+Function         Bfn.  Coefficient  Atom+Function  
  ----- ------------  ---------------      ----- ------------  ---------------
    48      5.986190   3 N  s                86     -5.987378   5 N  s         
    68      3.013055   4 C  px               31     -1.802437   2 C  py        
   107      1.803176   6 C  py               49      1.694306   3 N  px        
    87      1.694637   5 N  px               30     -1.607166   2 C  px        
   106     -1.607384   6 C  px               44     -1.362898   3 N  s         

 Vector   64  Occ=0.000000D+00  E= 1.160456D+00
              MO Center= -1.6D-04,  2.3D-01, -1.6D-03, r^2= 4.0D+00
   Bfn.  Coefficient  Atom+Function         Bfn.  Coefficient  Atom+Function  
  ----- ------------  ---------------      ----- ------------  ---------------
    10      6.703112   1 C  s                48      6.402412   3 N  s         
    86      6.400981   5 N  s                29     -5.888601   2 C  s         
   105     -5.888469   6 C  s                12      4.718629   1 C  py        
    67     -2.959239   4 C  s                30     -2.714087   2 C  px        
   106      2.713270   6 C  px               31     -1.795545   2 C  py        

 Vector   65  Occ=0.000000D+00  E= 1.257014D+00
              MO Center=  3.2D-05,  3.0D-01,  4.4D-04, r^2= 2.5D+00
   Bfn.  Coefficient  Atom+Function         Bfn.  Coefficient  Atom+Function  
  ----- ------------  ---------------      ----- ------------  ---------------
    75      1.225339   4 C  dyz              18      0.809440   1 C  dyz       
    37     -0.331133   2 C  dyz             113     -0.330884   6 C  dyz       
    70     -0.328254   4 C  pz               35      0.223288   2 C  dxz       
   111     -0.223669   6 C  dxz              56      0.218434   3 N  dyz       
    94      0.218300   5 N  dyz              51      0.208013   3 N  pz        

 Vector   66  Occ=0.000000D+00  E= 1.260628D+00
              MO Center=  9.6D-06, -1.5D-01,  5.3D-05, r^2= 4.0D+00
   Bfn.  Coefficient  Atom+Function         Bfn.  Coefficient  Atom+Function  
  ----- ------------  ---------------      ----- ------------  ---------------
    48     -2.370474   3 N  s                86     -2.370994   5 N  s         
    29      2.196285   2 C  s               105      2.196405   6 C  s         
    67      1.434223   4 C  s                12     -1.377206   1 C  py        
   122     -0.899295   9 H  s               116     -0.877915   7 H  s         
   119     -0.782229   8 H  s               125     -0.782176  10 H  s         

 Vector   67  Occ=0.000000D+00  E= 1.286687D+00
              MO Center=  7.5D-06, -2.1D-01, -2.7D-04, r^2= 2.5D+00
   Bfn.  Coefficient  Atom+Function         Bfn.  Coefficient  Atom+Function  
  ----- ------------  ---------------      ----- ------------  ---------------
    35      0.839807   2 C  dxz             111      0.839619   6 C  dxz       
    73      0.742570   4 C  dxz              37      0.482891   2 C  dyz       
   113     -0.483282   6 C  dyz              16     -0.396821   1 C  dxz       
    56     -0.237243   3 N  dyz              94      0.237317   5 N  dyz       
    28     -0.107142   2 C  pz              104      0.107134   6 C  pz        

 Vector   68  Occ=0.000000D+00  E= 1.341392D+00
              MO Center=  6.4D-05,  4.4D-01, -1.7D-05, r^2= 2.4D+00
   Bfn.  Coefficient  Atom+Function         Bfn.  Coefficient  Atom+Function  
  ----- ------------  ---------------      ----- ------------  ---------------
    73      1.124912   4 C  dxz              37     -0.551670   2 C  dyz       
   113      0.551726   6 C  dyz              16     -0.493299   1 C  dxz       
    54     -0.421619   3 N  dxz              92     -0.421661   5 N  dxz       
    35     -0.381618   2 C  dxz             111     -0.381431   6 C  dxz       
    51      0.276183   3 N  pz               89     -0.276194   5 N  pz        

 Vector   69  Occ=0.000000D+00  E= 1.351462D+00
              MO Center=  1.2D-05,  1.4D-02,  3.2D-04, r^2= 2.6D+00
   Bfn.  Coefficient  Atom+Function         Bfn.  Coefficient  Atom+Function  
  ----- ------------  ---------------      ----- ------------  ---------------
    37      0.986219   2 C  dyz             113      0.986241   6 C  dyz       
    75      0.814887   4 C  dyz              56     -0.289392   3 N  dyz       
    94     -0.289410   5 N  dyz              51     -0.146323   3 N  pz        
    89     -0.146358   5 N  pz               18     -0.144588   1 C  dyz       
    54     -0.105417   3 N  dxz              92      0.105281   5 N  dxz       

 Vector   70  Occ=0.000000D+00  E= 1.496117D+00
              MO Center=  3.3D-05,  1.8D-01,  5.4D-04, r^2= 3.8D+00
   Bfn.  Coefficient  Atom+Function         Bfn.  Coefficient  Atom+Function  
  ----- ------------  ---------------      ----- ------------  ---------------
   122      1.334280   9 H  s               116     -1.210010   7 H  s         
    12     -1.104990   1 C  py               29      1.020715   2 C  s         
   105      1.021138   6 C  s                67     -0.798085   4 C  s         
    74     -0.766909   4 C  dyy              48     -0.634046   3 N  s         
    86     -0.634143   5 N  s                69     -0.627905   4 C  py        

 Vector   71  Occ=0.000000D+00  E= 1.520480D+00
              MO Center= -9.2D-05, -3.2D-01, -1.9D-04, r^2= 3.4D+00
   Bfn.  Coefficient  Atom+Function         Bfn.  Coefficient  Atom+Function  
  ----- ------------  ---------------      ----- ------------  ---------------
   119     -1.253053   8 H  s               125      1.252959  10 H  s         
    29      1.149367   2 C  s               105     -1.148916   6 C  s         
    11      1.011849   1 C  px               34      0.795818   2 C  dxy       
   110      0.796032   6 C  dxy              30     -0.562589   2 C  px        
   106     -0.562620   6 C  px               31     -0.552311   2 C  py        

 Vector   72  Occ=0.000000D+00  E= 1.548511D+00
              MO Center= -9.0D-05, -7.6D-01,  1.1D-04, r^2= 2.7D+00
   Bfn.  Coefficient  Atom+Function         Bfn.  Coefficient  Atom+Function  
  ----- ------------  ---------------      ----- ------------  ---------------
    15      1.048710   1 C  dxy              68     -0.923416   4 C  px        
    11      0.863727   1 C  px               50     -0.803434   3 N  py        
    88      0.803721   5 N  py               48     -0.576535   3 N  s         
    86      0.576264   5 N  s                49     -0.469052   3 N  px        
    87     -0.468742   5 N  px               36      0.435676   2 C  dyy       

 Vector   73  Occ=0.000000D+00  E= 1.563851D+00
              MO Center= -4.1D-05, -4.4D-01, -1.0D-04, r^2= 2.7D+00
   Bfn.  Coefficient  Atom+Function         Bfn.  Coefficient  Atom+Function  
  ----- ------------  ---------------      ----- ------------  ---------------
    10      2.320514   1 C  s                12      1.932669   1 C  py        
    29     -1.420607   2 C  s               105     -1.420618   6 C  s         
    48      1.300404   3 N  s                86      1.300451   5 N  s         
     6     -0.685342   1 C  s                67     -0.684623   4 C  s         
    19     -0.632156   1 C  dzz              34     -0.506876   2 C  dxy       

 Vector   74  Occ=0.000000D+00  E= 1.707007D+00
              MO Center=  7.0D-05, -1.4D-01,  2.9D-04, r^2= 4.2D+00
   Bfn.  Coefficient  Atom+Function         Bfn.  Coefficient  Atom+Function  
  ----- ------------  ---------------      ----- ------------  ---------------
    67      1.194821   4 C  s               116     -1.145529   7 H  s         
    69     -0.897069   4 C  py               10      0.847934   1 C  s         
    34     -0.730914   2 C  dxy             110      0.730753   6 C  dxy       
   122     -0.698331   9 H  s                29     -0.611442   2 C  s         
   105     -0.611577   6 C  s               119      0.606811   8 H  s         

 Vector   75  Occ=0.000000D+00  E= 1.721416D+00
              MO Center=  1.9D-05,  4.9D-01, -6.9D-05, r^2= 3.2D+00
   Bfn.  Coefficient  Atom+Function         Bfn.  Coefficient  Atom+Function  
  ----- ------------  ---------------      ----- ------------  ---------------
    72      1.473496   4 C  dxy              30     -1.177018   2 C  px        
   106     -1.177166   6 C  px               29     -1.145362   2 C  s         
   105      1.145169   6 C  s                11     -0.975899   1 C  px        
    50      0.692760   3 N  py               88     -0.692965   5 N  py        
    49      0.623402   3 N  px               87      0.623185   5 N  px        

 Vector   76  Occ=0.000000D+00  E= 1.834575D+00
              MO Center= -1.4D-04, -8.3D-01, -7.0D-05, r^2= 2.3D+00
   Bfn.  Coefficient  Atom+Function         Bfn.  Coefficient  Atom+Function  
  ----- ------------  ---------------      ----- ------------  ---------------
    18      1.486336   1 C  dyz              35     -1.090358   2 C  dxz       
   111      1.090405   6 C  dxz              13      0.676880   1 C  pz        
    32     -0.436396   2 C  pz              108     -0.436386   6 C  pz        
    75     -0.406358   4 C  dyz              37      0.206146   2 C  dyz       
   113      0.205789   6 C  dyz               5      0.200881   1 C  pz        

 Vector   77  Occ=0.000000D+00  E= 1.870698D+00
              MO Center=  3.2D-05,  1.9D-01,  5.2D-04, r^2= 3.0D+00
   Bfn.  Coefficient  Atom+Function         Bfn.  Coefficient  Atom+Function  
  ----- ------------  ---------------      ----- ------------  ---------------
    67      1.625874   4 C  s                69     -1.371938   4 C  py        
    10     -1.145099   1 C  s                76     -0.828729   4 C  dzz       
    19      0.781127   1 C  dzz              31     -0.751640   2 C  py        
   107     -0.751679   6 C  py               71      0.731883   4 C  dxx       
   116      0.683946   7 H  s                30     -0.498996   2 C  px        

 Vector   78  Occ=0.000000D+00  E= 1.912512D+00
              MO Center= -4.6D-05, -3.0D-01,  2.0D-03, r^2= 2.8D+00
   Bfn.  Coefficient  Atom+Function         Bfn.  Coefficient  Atom+Function  
  ----- ------------  ---------------      ----- ------------  ---------------
    29      1.847891   2 C  s               105     -1.847985   6 C  s         
    30      0.956700   2 C  px              106      0.956479   6 C  px        
    31      0.799740   2 C  py              107     -0.800097   6 C  py        
    34     -0.748360   2 C  dxy              38     -0.749820   2 C  dzz       
   110     -0.748719   6 C  dxy             114      0.749815   6 C  dzz       

 Vector   79  Occ=0.000000D+00  E= 1.926115D+00
              MO Center= -8.7D-05, -6.4D-01, -2.0D-03, r^2= 2.4D+00
   Bfn.  Coefficient  Atom+Function         Bfn.  Coefficient  Atom+Function  
  ----- ------------  ---------------      ----- ------------  ---------------
    16      1.613980   1 C  dxz              35      0.828662   2 C  dxz       
   111      0.828849   6 C  dxz              37     -0.465173   2 C  dyz       
   113      0.464917   6 C  dyz              56      0.455710   3 N  dyz       
    94     -0.455671   5 N  dyz              73      0.394355   4 C  dxz       
    32      0.252093   2 C  pz              108     -0.252106   6 C  pz        

 Vector   80  Occ=0.000000D+00  E= 1.965161D+00
              MO Center= -1.1D-04, -7.6D-01,  1.5D-04, r^2= 3.2D+00
   Bfn.  Coefficient  Atom+Function         Bfn.  Coefficient  Atom+Function  
  ----- ------------  ---------------      ----- ------------  ---------------
    10      2.265928   1 C  s                29     -1.170612   2 C  s         
   105     -1.170597   6 C  s               116     -1.149988   7 H  s         
    67      0.823213   4 C  s                31      0.814447   2 C  py        
   107      0.814251   6 C  py               33     -0.720579   2 C  dxx       
   109     -0.720736   6 C  dxx             119      0.700666   8 H  s         

 Vector   81  Occ=0.000000D+00  E= 2.134534D+00
              MO Center=  4.7D-05,  2.9D-01,  9.7D-05, r^2= 5.0D+00
   Bfn.  Coefficient  Atom+Function         Bfn.  Coefficient  Atom+Function  
  ----- ------------  ---------------      ----- ------------  ---------------
   122      1.258584   9 H  s               119      0.768297   8 H  s         
   125      0.768301  10 H  s               121     -0.702015   9 H  s         
    12     -0.584348   1 C  py              118     -0.496594   8 H  s         
   124     -0.496584  10 H  s                61      0.429795   4 C  py        
   123     -0.420817   9 H  s                65     -0.406275   4 C  py        

 Vector   82  Occ=0.000000D+00  E= 2.206571D+00
              MO Center= -1.3D-04, -9.3D-01,  1.7D-04, r^2= 2.6D+00
   Bfn.  Coefficient  Atom+Function         Bfn.  Coefficient  Atom+Function  
  ----- ------------  ---------------      ----- ------------  ---------------
    11      2.234918   1 C  px               15      1.968899   1 C  dxy       
    29      1.505930   2 C  s               105     -1.505686   6 C  s         
    31     -1.053451   2 C  py              107      1.053339   6 C  py        
   119     -0.656936   8 H  s               125      0.656990  10 H  s         
    33      0.628876   2 C  dxx             109     -0.629026   6 C  dxx       

 Vector   83  Occ=0.000000D+00  E= 2.221799D+00
              MO Center=  1.2D-04,  7.4D-01, -9.5D-05, r^2= 2.1D+00
   Bfn.  Coefficient  Atom+Function         Bfn.  Coefficient  Atom+Function  
  ----- ------------  ---------------      ----- ------------  ---------------
    54      0.967775   3 N  dxz              92     -0.967626   5 N  dxz       
    75      0.568590   4 C  dyz              62     -0.556910   4 C  pz        
    70     -0.485818   4 C  pz               56      0.468830   3 N  dyz       
    94      0.469134   5 N  dyz              66      0.394576   4 C  pz        
    35     -0.293858   2 C  dxz             111      0.293952   6 C  dxz       

 Vector   84  Occ=0.000000D+00  E= 2.272202D+00
              MO Center= -3.8D-05, -6.2D-02, -1.4D-04, r^2= 3.6D+00
   Bfn.  Coefficient  Atom+Function         Bfn.  Coefficient  Atom+Function  
  ----- ------------  ---------------      ----- ------------  ---------------
    15      1.025872   1 C  dxy             119      0.871484   8 H  s         
   125     -0.871384  10 H  s                72     -0.858294   4 C  dxy       
    30      0.822597   2 C  px              106      0.822295   6 C  px        
    48      0.626497   3 N  s                86     -0.626632   5 N  s         
    29      0.618971   2 C  s               105     -0.618250   6 C  s         

 Vector   85  Occ=0.000000D+00  E= 2.279183D+00
              MO Center= -7.0D-05, -7.7D-01,  2.9D-04, r^2= 3.0D+00
   Bfn.  Coefficient  Atom+Function         Bfn.  Coefficient  Atom+Function  
  ----- ------------  ---------------      ----- ------------  ---------------
    10      6.327237   1 C  s                29     -4.620980   2 C  s         
   105     -4.621143   6 C  s                12      3.769476   1 C  py        
    30     -2.331049   2 C  px              106      2.330975   6 C  px        
    67      1.547680   4 C  s                69     -1.332954   4 C  py        
   116      1.171363   7 H  s                14      0.934299   1 C  dxx       

 Vector   86  Occ=0.000000D+00  E= 2.329122D+00
              MO Center= -9.1D-05, -5.6D-01,  7.3D-04, r^2= 4.4D+00
   Bfn.  Coefficient  Atom+Function         Bfn.  Coefficient  Atom+Function  
  ----- ------------  ---------------      ----- ------------  ---------------
   116      1.173153   7 H  s               122     -0.964763   9 H  s         
   115     -0.796160   7 H  s               119      0.647904   8 H  s         
   125      0.647855  10 H  s                69      0.636814   4 C  py        
     8      0.557530   1 C  py              121      0.535411   9 H  s         
     4     -0.469556   1 C  py               29      0.449912   2 C  s         

 Vector   87  Occ=0.000000D+00  E= 2.339155D+00
              MO Center=  6.2D-04,  3.7D-01, -1.6D-04, r^2= 2.7D+00
   Bfn.  Coefficient  Atom+Function         Bfn.  Coefficient  Atom+Function  
  ----- ------------  ---------------      ----- ------------  ---------------
    54      0.935478   3 N  dxz              92      0.935958   5 N  dxz       
    37     -0.829667   2 C  dyz             113      0.830047   6 C  dyz       
    73      0.807685   4 C  dxz              56     -0.671423   3 N  dyz       
    94      0.671717   5 N  dyz              16      0.574201   1 C  dxz       
    51      0.362238   3 N  pz               89     -0.362462   5 N  pz        

 Vector   88  Occ=0.000000D+00  E= 2.348250D+00
              MO Center= -5.2D-04,  1.2D-01, -3.5D-04, r^2= 2.7D+00
   Bfn.  Coefficient  Atom+Function         Bfn.  Coefficient  Atom+Function  
  ----- ------------  ---------------      ----- ------------  ---------------
    56      0.946475   3 N  dyz              94      0.945926   5 N  dyz       
    37      0.639826   2 C  dyz             113      0.639314   6 C  dyz       
    24      0.437128   2 C  pz               54     -0.436717   3 N  dxz       
    92      0.436448   5 N  dxz             100      0.437036   6 C  pz        
    75     -0.364965   4 C  dyz              28     -0.360642   2 C  pz        

 Vector   89  Occ=0.000000D+00  E= 2.561339D+00
              MO Center= -3.2D-04,  1.3D-01, -1.9D-04, r^2= 3.6D+00
   Bfn.  Coefficient  Atom+Function         Bfn.  Coefficient  Atom+Function  
  ----- ------------  ---------------      ----- ------------  ---------------
    48      2.049886   3 N  s                86     -2.049072   5 N  s         
    29     -1.848621   2 C  s               105      1.848103   6 C  s         
    30     -0.936140   2 C  px              106     -0.935979   6 C  px        
    49      0.813417   3 N  px               87      0.813282   5 N  px        
   119     -0.807314   8 H  s               125      0.807267  10 H  s         

 Vector   90  Occ=0.000000D+00  E= 2.571895D+00
              MO Center=  4.8D-04,  8.5D-01, -2.1D-04, r^2= 2.7D+00
   Bfn.  Coefficient  Atom+Function         Bfn.  Coefficient  Atom+Function  
  ----- ------------  ---------------      ----- ------------  ---------------
    48      2.069148   3 N  s                86      2.069877   5 N  s         
    67     -2.031321   4 C  s                29     -1.405659   2 C  s         
   105     -1.406334   6 C  s                10      1.017363   1 C  s         
    63     -0.942710   4 C  s                76      0.829255   4 C  dzz       
   122     -0.757968   9 H  s                25     -0.641652   2 C  s         

 Vector   91  Occ=0.000000D+00  E= 2.664729D+00
              MO Center=  2.6D-04,  1.1D-02, -1.7D-04, r^2= 2.7D+00
   Bfn.  Coefficient  Atom+Function         Bfn.  Coefficient  Atom+Function  
  ----- ------------  ---------------      ----- ------------  ---------------
    73      0.980163   4 C  dxz              16     -0.828966   1 C  dxz       
    54      0.779022   3 N  dxz              92      0.779162   5 N  dxz       
    28     -0.664461   2 C  pz              104      0.665126   6 C  pz        
    56      0.584059   3 N  dyz              94     -0.583565   5 N  dyz       
    24      0.560099   2 C  pz              100     -0.560687   6 C  pz        

 Vector   92  Occ=0.000000D+00  E= 2.665138D+00
              MO Center= -3.4D-04, -5.2D-01, -2.2D-04, r^2= 2.4D+00
   Bfn.  Coefficient  Atom+Function         Bfn.  Coefficient  Atom+Function  
  ----- ------------  ---------------      ----- ------------  ---------------
     9      0.977901   1 C  pz                5     -0.848136   1 C  pz        
    56      0.629629   3 N  dyz              94      0.630201   5 N  dyz       
    28      0.559838   2 C  pz              104      0.559059   6 C  pz        
    37      0.510599   2 C  dyz             113      0.511115   6 C  dyz       
    24     -0.495306   2 C  pz              100     -0.494650   6 C  pz        

 Vector   93  Occ=0.000000D+00  E= 2.766846D+00
              MO Center=  1.4D-04,  6.2D-01, -2.4D-04, r^2= 3.0D+00
   Bfn.  Coefficient  Atom+Function         Bfn.  Coefficient  Atom+Function  
  ----- ------------  ---------------      ----- ------------  ---------------
    67      2.182726   4 C  s                29     -1.313848   2 C  s         
   105     -1.313840   6 C  s                31     -1.031794   2 C  py        
   107     -1.031900   6 C  py               69     -1.016519   4 C  py        
    49     -0.944314   3 N  px               87      0.944072   5 N  px        
    50     -0.880820   3 N  py               88     -0.881180   5 N  py        

 Vector   94  Occ=0.000000D+00  E= 2.774947D+00
              MO Center=  1.6D-04,  1.0D+00,  1.3D-04, r^2= 1.4D+00
   Bfn.  Coefficient  Atom+Function         Bfn.  Coefficient  Atom+Function  
  ----- ------------  ---------------      ----- ------------  ---------------
    66      1.439943   4 C  pz               62     -1.148265   4 C  pz        
    54     -0.648129   3 N  dxz              92      0.648029   5 N  dxz       
    70     -0.500136   4 C  pz               56     -0.312546   3 N  dyz       
    94     -0.312744   5 N  dyz              75     -0.241488   4 C  dyz       
    28     -0.219206   2 C  pz              104     -0.219179   6 C  pz        

 Vector   95  Occ=0.000000D+00  E= 2.779728D+00
              MO Center=  5.1D-06,  2.7D-02, -5.6D-05, r^2= 2.6D+00
   Bfn.  Coefficient  Atom+Function         Bfn.  Coefficient  Atom+Function  
  ----- ------------  ---------------      ----- ------------  ---------------
    56      0.904626   3 N  dyz              94     -0.904756   5 N  dyz       
    28      0.880054   2 C  pz              104     -0.880033   6 C  pz        
    24     -0.702724   2 C  pz              100      0.702708   6 C  pz        
    73      0.695791   4 C  dxz              37      0.396753   2 C  dyz       
   113     -0.396732   6 C  dyz              54      0.377906   3 N  dxz       

 Vector   96  Occ=0.000000D+00  E= 2.806231D+00
              MO Center= -2.1D-05,  2.3D-01, -2.1D-04, r^2= 2.9D+00
   Bfn.  Coefficient  Atom+Function         Bfn.  Coefficient  Atom+Function  
  ----- ------------  ---------------      ----- ------------  ---------------
    53      1.196346   3 N  dxy              91      1.196126   5 N  dxy       
    34      0.811963   2 C  dxy             110      0.812055   6 C  dxy       
   119      0.534453   8 H  s               125     -0.534454  10 H  s         
    11     -0.498996   1 C  px               31      0.488669   2 C  py        
   107     -0.488595   6 C  py               68      0.466865   4 C  px        

 Vector   97  Occ=0.000000D+00  E= 2.850776D+00
              MO Center=  7.7D-05,  2.3D-01,  1.1D-04, r^2= 3.0D+00
   Bfn.  Coefficient  Atom+Function         Bfn.  Coefficient  Atom+Function  
  ----- ------------  ---------------      ----- ------------  ---------------
    10      1.515786   1 C  s                29     -0.973506   2 C  s         
   105     -0.973129   6 C  s               122      0.812731   9 H  s         
    53      0.774942   3 N  dxy              91     -0.775083   5 N  dxy       
    74      0.763125   4 C  dyy              69     -0.727244   4 C  py        
    65     -0.671877   4 C  py               36      0.661094   2 C  dyy       

 Vector   98  Occ=0.000000D+00  E= 2.863664D+00
              MO Center=  2.7D-06,  5.6D-01, -2.4D-04, r^2= 2.5D+00
   Bfn.  Coefficient  Atom+Function         Bfn.  Coefficient  Atom+Function  
  ----- ------------  ---------------      ----- ------------  ---------------
    68      1.279548   4 C  px               31      1.101073   2 C  py        
   107     -1.100780   6 C  py               50      1.025260   3 N  py        
    88     -1.025000   5 N  py               11     -0.775443   1 C  px        
    60      0.629112   4 C  px               55     -0.561811   3 N  dyy       
    93      0.561714   5 N  dyy              72     -0.534499   4 C  dxy       

 Vector   99  Occ=0.000000D+00  E= 2.914949D+00
              MO Center= -1.2D-04, -8.6D-01, -8.6D-05, r^2= 1.7D+00
   Bfn.  Coefficient  Atom+Function         Bfn.  Coefficient  Atom+Function  
  ----- ------------  ---------------      ----- ------------  ---------------
     9      1.279595   1 C  pz                5     -0.940006   1 C  pz        
    28     -0.865419   2 C  pz              104     -0.865441   6 C  pz        
    24      0.627944   2 C  pz              100      0.627961   6 C  pz        
    13     -0.598570   1 C  pz               18      0.459449   1 C  dyz       
    35     -0.405232   2 C  dxz             111      0.405247   6 C  dxz       

 Vector  100  Occ=0.000000D+00  E= 2.969154D+00
              MO Center= -1.5D-04, -9.0D-01,  6.1D-04, r^2= 2.4D+00
   Bfn.  Coefficient  Atom+Function         Bfn.  Coefficient  Atom+Function  
  ----- ------------  ---------------      ----- ------------  ---------------
    10      2.839447   1 C  s                 6      1.386787   1 C  s         
    14     -1.247433   1 C  dxx              19     -1.145873   1 C  dzz       
    17     -1.042654   1 C  dyy              67     -1.036325   4 C  s         
    25      0.878485   2 C  s               101      0.878471   6 C  s         
    48      0.815040   3 N  s                86      0.815032   5 N  s         

 Vector  101  Occ=0.000000D+00  E= 3.029460D+00
              MO Center= -5.4D-05, -7.9D-01, -9.4D-05, r^2= 2.4D+00
   Bfn.  Coefficient  Atom+Function         Bfn.  Coefficient  Atom+Function  
  ----- ------------  ---------------      ----- ------------  ---------------
    29      1.597304   2 C  s               105     -1.597740   6 C  s         
    25      1.305240   2 C  s               101     -1.305299   6 C  s         
    36     -1.145735   2 C  dyy             112      1.145796   6 C  dyy       
    33     -1.088378   2 C  dxx             109      1.088437   6 C  dxx       
    38     -0.877950   2 C  dzz             114      0.878007   6 C  dzz       

 Vector  102  Occ=0.000000D+00  E= 3.076196D+00
              MO Center=  1.6D-04,  9.1D-01, -2.7D-04, r^2= 2.8D+00
   Bfn.  Coefficient  Atom+Function         Bfn.  Coefficient  Atom+Function  
  ----- ------------  ---------------      ----- ------------  ---------------
    10      4.085782   1 C  s                29     -2.587401   2 C  s         
   105     -2.587274   6 C  s                12      1.808602   1 C  py        
    48      1.451072   3 N  s                86      1.451079   5 N  s         
    74     -1.358874   4 C  dyy              71     -1.308506   4 C  dxx       
    63      1.285943   4 C  s                30     -1.211105   2 C  px        

 Vector  103  Occ=0.000000D+00  E= 3.158574D+00
              MO Center= -1.1D-04, -8.8D-01,  5.2D-04, r^2= 3.3D+00
   Bfn.  Coefficient  Atom+Function         Bfn.  Coefficient  Atom+Function  
  ----- ------------  ---------------      ----- ------------  ---------------
    12      1.365877   1 C  py               30     -1.027750   2 C  px        
   106      1.027589   6 C  px               17      0.991063   1 C  dyy       
     6     -0.979779   1 C  s                48      0.965354   3 N  s         
    86      0.965337   5 N  s                31     -0.798041   2 C  py        
   107     -0.798372   6 C  py               33     -0.792080   2 C  dxx       

 Vector  104  Occ=0.000000D+00  E= 3.219162D+00
              MO Center= -1.6D-04, -7.6D-01,  8.1D-05, r^2= 2.6D+00
   Bfn.  Coefficient  Atom+Function         Bfn.  Coefficient  Atom+Function  
  ----- ------------  ---------------      ----- ------------  ---------------
    11      1.552810   1 C  px               31     -1.546910   2 C  py        
   107      1.547162   6 C  py               30     -1.003810   2 C  px        
   106     -1.003329   6 C  px                7     -0.901971   1 C  px        
    48      0.859041   3 N  s                86     -0.858983   5 N  s         
    50     -0.844980   3 N  py               88      0.844983   5 N  py        

 Vector  105  Occ=0.000000D+00  E= 3.267374D+00
              MO Center= -1.5D-04, -1.0D+00,  2.2D-04, r^2= 1.9D+00
   Bfn.  Coefficient  Atom+Function         Bfn.  Coefficient  Atom+Function  
  ----- ------------  ---------------      ----- ------------  ---------------
    12      2.237196   1 C  py                8     -1.084874   1 C  py        
   116      1.032047   7 H  s                 4      0.964125   1 C  py        
    29     -0.764936   2 C  s               105     -0.765047   6 C  s         
   115     -0.695758   7 H  s                31     -0.608947   2 C  py        
   107     -0.608872   6 C  py               69      0.576492   4 C  py        

 Vector  106  Occ=0.000000D+00  E= 3.278234D+00
              MO Center= -1.6D-05, -3.4D-02,  2.5D-04, r^2= 3.4D+00
   Bfn.  Coefficient  Atom+Function         Bfn.  Coefficient  Atom+Function  
  ----- ------------  ---------------      ----- ------------  ---------------
    10      2.307971   1 C  s                12      2.208398   1 C  py        
    29     -2.106394   2 C  s               105     -2.106317   6 C  s         
    48      1.113555   3 N  s                65      1.114087   4 C  py        
    86      1.113538   5 N  s               116      1.039332   7 H  s         
    30     -1.012978   2 C  px              106      1.013029   6 C  px        

 Vector  107  Occ=0.000000D+00  E= 3.397937D+00
              MO Center=  3.8D-05,  3.5D-02, -1.6D-04, r^2= 2.8D+00
   Bfn.  Coefficient  Atom+Function         Bfn.  Coefficient  Atom+Function  
  ----- ------------  ---------------      ----- ------------  ---------------
    27      1.289334   2 C  py              103     -1.289523   6 C  py        
    50      1.159008   3 N  py               88     -1.159029   5 N  py        
    48     -1.056783   3 N  s                86      1.056916   5 N  s         
    36      0.941411   2 C  dyy             112     -0.941282   6 C  dyy       
    29      0.903106   2 C  s               105     -0.903246   6 C  s         

 Vector  108  Occ=0.000000D+00  E= 3.497859D+00
              MO Center=  3.5D-04,  4.9D-01, -2.0D-04, r^2= 2.6D+00
   Bfn.  Coefficient  Atom+Function         Bfn.  Coefficient  Atom+Function  
  ----- ------------  ---------------      ----- ------------  ---------------
    10      3.483624   1 C  s                69     -2.444679   4 C  py        
    30     -1.981752   2 C  px              106      1.982425   6 C  px        
    12      1.833805   1 C  py               29     -1.832609   2 C  s         
   105     -1.832925   6 C  s                27      1.174493   2 C  py        
   103      1.174618   6 C  py               65      1.128225   4 C  py        

 Vector  109  Occ=0.000000D+00  E= 3.504737D+00
              MO Center= -1.8D-04,  7.9D-01, -1.7D-04, r^2= 2.1D+00
   Bfn.  Coefficient  Atom+Function         Bfn.  Coefficient  Atom+Function  
  ----- ------------  ---------------      ----- ------------  ---------------
    64      2.343021   4 C  px               30     -1.503381   2 C  px        
   106     -1.502320   6 C  px               49      1.385380   3 N  px        
    87      1.384855   5 N  px               48      1.322130   3 N  s         
    86     -1.322020   5 N  s                72     -1.163646   4 C  dxy       
    60     -1.041910   4 C  px               68      0.974568   4 C  px        

 Vector  110  Occ=0.000000D+00  E= 3.584328D+00
              MO Center=  8.3D-05,  3.5D-01, -1.1D-04, r^2= 2.7D+00
   Bfn.  Coefficient  Atom+Function         Bfn.  Coefficient  Atom+Function  
  ----- ------------  ---------------      ----- ------------  ---------------
    48      2.362287   3 N  s                86      2.362427   5 N  s         
    71     -1.564303   4 C  dxx              67     -1.520979   4 C  s         
    10      1.088948   1 C  s                29     -1.049453   2 C  s         
   105     -1.049513   6 C  s                36     -1.006759   2 C  dyy       
   112     -1.006476   6 C  dyy              53      0.848353   3 N  dxy       

 Vector  111  Occ=0.000000D+00  E= 3.826857D+00
              MO Center=  1.1D-04,  7.4D-01, -2.1D-04, r^2= 2.1D+00
   Bfn.  Coefficient  Atom+Function         Bfn.  Coefficient  Atom+Function  
  ----- ------------  ---------------      ----- ------------  ---------------
    47      1.092023   3 N  pz               85     -1.092014   5 N  pz        
    43     -0.912398   3 N  pz               81      0.912391   5 N  pz        
    51     -0.443530   3 N  pz               89      0.443526   5 N  pz        
    73      0.410838   4 C  dxz              37     -0.202488   2 C  dyz       
   113      0.202473   6 C  dyz              32      0.149965   2 C  pz        

 Vector  112  Occ=0.000000D+00  E= 3.860407D+00
              MO Center=  1.2D-04,  7.0D-01,  2.6D-05, r^2= 2.2D+00
   Bfn.  Coefficient  Atom+Function         Bfn.  Coefficient  Atom+Function  
  ----- ------------  ---------------      ----- ------------  ---------------
    47      1.114634   3 N  pz               85      1.114642   5 N  pz        
    43     -0.912397   3 N  pz               81     -0.912404   5 N  pz        
    51     -0.647413   3 N  pz               89     -0.647416   5 N  pz        
    70      0.403453   4 C  pz               66     -0.285747   4 C  pz        
    32      0.278613   2 C  pz              108      0.278614   6 C  pz        

 Vector  113  Occ=0.000000D+00  E= 4.149492D+00
              MO Center= -5.6D-04, -9.0D-01,  2.2D-04, r^2= 1.4D+00
   Bfn.  Coefficient  Atom+Function         Bfn.  Coefficient  Atom+Function  
  ----- ------------  ---------------      ----- ------------  ---------------
     8      2.756491   1 C  py               14      2.367151   1 C  dxx       
    26     -2.044544   2 C  px              102      2.043485   6 C  px        
    33     -1.370302   2 C  dxx             109     -1.369968   6 C  dxx       
    34      1.287761   2 C  dxy             110     -1.286217   6 C  dxy       
    17      1.196364   1 C  dyy              27      1.149777   2 C  py        

 Vector  114  Occ=0.000000D+00  E= 4.154409D+00
              MO Center=  4.8D-04,  4.7D-01, -1.4D-04, r^2= 2.9D+00
   Bfn.  Coefficient  Atom+Function         Bfn.  Coefficient  Atom+Function  
  ----- ------------  ---------------      ----- ------------  ---------------
    48      2.696840   3 N  s                86     -2.696185   5 N  s         
     7     -2.139205   1 C  px               15     -1.526459   1 C  dxy       
    68      1.263820   4 C  px               26     -1.055197   2 C  px        
   102     -1.058335   6 C  px               64      0.851416   4 C  px        
    34      0.747304   2 C  dxy             110      0.749196   6 C  dxy       

 Vector  115  Occ=0.000000D+00  E= 4.234146D+00
              MO Center=  5.5D-04,  6.5D-01, -5.3D-04, r^2= 2.7D+00
   Bfn.  Coefficient  Atom+Function         Bfn.  Coefficient  Atom+Function  
  ----- ------------  ---------------      ----- ------------  ---------------
    48      3.643030   3 N  s                86      3.644086   5 N  s         
    29     -2.377543   2 C  s               105     -2.377926   6 C  s         
    12      1.899745   1 C  py               10      1.720378   1 C  s         
    67     -1.490656   4 C  s                45      1.001238   3 N  px        
    83     -1.001672   5 N  px               31     -0.890394   2 C  py        

 Vector  116  Occ=0.000000D+00  E= 4.259164D+00
              MO Center= -4.9D-04, -4.3D-01,  4.9D-05, r^2= 2.6D+00
   Bfn.  Coefficient  Atom+Function         Bfn.  Coefficient  Atom+Function  
  ----- ------------  ---------------      ----- ------------  ---------------
     7      3.534664   1 C  px               15      2.698987   1 C  dxy       
    48      1.752849   3 N  s                86     -1.750862   5 N  s         
    26      1.715256   2 C  px               34     -1.716509   2 C  dxy       
   102      1.715656   6 C  px              110     -1.715787   6 C  dxy       
    27     -1.306736   2 C  py              103      1.305695   6 C  py        

 Vector  117  Occ=0.000000D+00  E= 4.936172D+00
              MO Center=  1.5D-04,  1.0D+00, -1.2D-04, r^2= 1.4D+00
   Bfn.  Coefficient  Atom+Function         Bfn.  Coefficient  Atom+Function  
  ----- ------------  ---------------      ----- ------------  ---------------
    71      1.784531   4 C  dxx              45     -1.274040   3 N  px        
    83      1.273800   5 N  px               52     -1.233098   3 N  dxx       
    90     -1.232856   5 N  dxx              48      1.080674   3 N  s         
    86      1.080668   5 N  s                55     -0.934128   3 N  dyy       
    93     -0.934397   5 N  dyy              44      0.928953   3 N  s         

 Vector  118  Occ=0.000000D+00  E= 5.070489D+00
              MO Center= -2.5D-04,  2.3D-01, -2.8D-04, r^2= 2.3D+00
   Bfn.  Coefficient  Atom+Function         Bfn.  Coefficient  Atom+Function  
  ----- ------------  ---------------      ----- ------------  ---------------
    46      1.818034   3 N  py               84      1.817594   5 N  py        
    27      1.467023   2 C  py              103      1.466504   6 C  py        
    55     -1.256967   3 N  dyy              93     -1.256632   5 N  dyy       
    36      1.129070   2 C  dyy             112      1.128816   6 C  dyy       
    29     -0.943747   2 C  s               105     -0.943743   6 C  s         

 Vector  119  Occ=0.000000D+00  E= 5.082380D+00
              MO Center=  3.7D-04,  3.0D-01, -1.8D-04, r^2= 2.2D+00
   Bfn.  Coefficient  Atom+Function         Bfn.  Coefficient  Atom+Function  
  ----- ------------  ---------------      ----- ------------  ---------------
    46      1.809920   3 N  py               84     -1.810734   5 N  py        
    27      1.674600   2 C  py              103     -1.674781   6 C  py        
     7     -1.428785   1 C  px               64      1.389958   4 C  px        
    15     -1.317571   1 C  dxy              72     -0.982871   4 C  dxy       
    55     -0.972694   3 N  dyy              93      0.972891   5 N  dyy       

 Vector  120  Occ=0.000000D+00  E= 5.298202D+00
              MO Center=  8.8D-05,  6.7D-01, -1.5D-04, r^2= 1.4D+00
   Bfn.  Coefficient  Atom+Function         Bfn.  Coefficient  Atom+Function  
  ----- ------------  ---------------      ----- ------------  ---------------
    64      2.329670   4 C  px               72     -1.931487   4 C  dxy       
    45      1.511687   3 N  px               83      1.511747   5 N  px        
    52      1.405877   3 N  dxx              90     -1.405742   5 N  dxx       
    55      1.069132   3 N  dyy              93     -1.069201   5 N  dyy       
    27     -0.994750   2 C  py              103      0.994543   6 C  py        

 Vector  121  Occ=0.000000D+00  E= 2.645693D+01
              MO Center= -2.1D-05,  9.5D-01,  3.7D-06, r^2= 8.9D-01
   Bfn.  Coefficient  Atom+Function         Bfn.  Coefficient  Atom+Function  
  ----- ------------  ---------------      ----- ------------  ---------------
    59      2.348950   4 C  s                58     -1.931990   4 C  s         
    63     -1.006894   4 C  s                71      0.700226   4 C  dxx       
    21      0.685213   2 C  s                97      0.684494   6 C  s         
    74      0.590598   4 C  dyy              20     -0.563295   2 C  s         
    76      0.563105   4 C  dzz              96     -0.562703   6 C  s         

 Vector  122  Occ=0.000000D+00  E= 2.646989D+01
              MO Center=  3.5D-04, -6.1D-01, -1.8D-04, r^2= 1.5D+00
   Bfn.  Coefficient  Atom+Function         Bfn.  Coefficient  Atom+Function  
  ----- ------------  ---------------      ----- ------------  ---------------
    21      1.815004   2 C  s                97     -1.815694   6 C  s         
    20     -1.493178   2 C  s                96      1.493745   6 C  s         
    25     -0.773258   2 C  s               101      0.773564   6 C  s         
    29     -0.584790   2 C  s               105      0.584647   6 C  s         
    36      0.505754   2 C  dyy             112     -0.505925   6 C  dyy       

 Vector  123  Occ=0.000000D+00  E= 2.648245D+01
              MO Center= -3.9D-04, -8.7D-01,  1.5D-04, r^2= 1.2D+00
   Bfn.  Coefficient  Atom+Function         Bfn.  Coefficient  Atom+Function  
  ----- ------------  ---------------      ----- ------------  ---------------
     2      1.705235   1 C  s                 1     -1.403702   1 C  s         
    21      1.313337   2 C  s                97      1.312773   6 C  s         
    20     -1.079638   2 C  s                96     -1.079174   6 C  s         
     6     -0.768149   1 C  s                25     -0.595149   2 C  s         
   101     -0.594910   6 C  s                10     -0.490619   1 C  s         

 Vector  124  Occ=0.000000D+00  E= 2.669119D+01
              MO Center= -1.2D-04, -7.7D-01,  2.4D-04, r^2= 1.3D+00
   Bfn.  Coefficient  Atom+Function         Bfn.  Coefficient  Atom+Function  
  ----- ------------  ---------------      ----- ------------  ---------------
     2      1.900237   1 C  s                10     -1.643137   1 C  s         
     1     -1.551905   1 C  s                21     -1.064576   2 C  s         
    97     -1.064556   6 C  s                29      1.012289   2 C  s         
   105      1.012284   6 C  s                59      0.924492   4 C  s         
    20      0.868582   2 C  s                96      0.868566   6 C  s         

 Vector  125  Occ=0.000000D+00  E= 3.964495D+01
              MO Center=  1.9D-04,  7.3D-01, -2.4D-04, r^2= 1.6D+00
   Bfn.  Coefficient  Atom+Function         Bfn.  Coefficient  Atom+Function  
  ----- ------------  ---------------      ----- ------------  ---------------
    40      1.873897   3 N  s                78      1.874011   5 N  s         
    39     -1.573711   3 N  s                77     -1.573807   5 N  s         
    48     -0.870766   3 N  s                86     -0.870801   5 N  s         
    44     -0.705050   3 N  s                82     -0.705095   5 N  s         
    29      0.563748   2 C  s               105      0.563764   6 C  s         

 Vector  126  Occ=0.000000D+00  E= 3.966927D+01
              MO Center=  4.2D-05,  7.3D-01, -2.3D-04, r^2= 1.6D+00
   Bfn.  Coefficient  Atom+Function         Bfn.  Coefficient  Atom+Function  
  ----- ------------  ---------------      ----- ------------  ---------------
    40      1.876098   3 N  s                78     -1.875984   5 N  s         
    39     -1.574426   3 N  s                77      1.574329   5 N  s         
    44     -0.723774   3 N  s                82      0.723731   5 N  s         
    48     -0.698892   3 N  s                86      0.698835   5 N  s         
    55      0.491126   3 N  dyy              93     -0.491104   5 N  dyy       


 center of mass
 --------------
 x =   0.00001743 y =   0.05983312 z =  -0.00002387

 moments of inertia (a.u.)
 ------------------
         283.178783770175           0.004556161984           0.003088429031
           0.004556161984         299.385439388809           0.066974031167
           0.003088429031           0.066974031167         582.564094679495

     Multipole analysis of the density
     ---------------------------------

     L   x y z        total         alpha         beta         nuclear
     -   - - -        -----         -----         ----         -------
     0   0 0 0      0.000000    -21.000000    -21.000000     42.000000

     1   1 0 0     -0.000144     -0.000268     -0.000268      0.000391
     1   0 1 0     -0.966988     -0.601993     -0.601993      0.236998
     1   0 0 1      0.000934     -0.000360     -0.000360      0.001654

     2   2 0 0    -27.470155    -96.657446    -96.657446    165.844736
     2   1 1 0      0.000738      0.000771      0.000771     -0.000804
     2   1 0 1      0.000477      0.000583      0.000583     -0.000688
     2   0 2 0    -22.816797    -94.699254    -94.699254    166.581710
     2   0 1 1     -0.004448      0.021402      0.021402     -0.047253
     2   0 0 2    -26.656898    -13.328476    -13.328476      0.000053


 Parallel integral file used     484 records with       0 large values

 Line search: 
     step= 1.00 grad=-2.3D-02 hess= 2.2D-02 energy=   -264.066178 mode=downhill
 new step= 0.52                   predicted energy=   -264.071149

          --------
          Step   1
          --------


                         Geometry "geometry" -> "geometry"
                         ---------------------------------

 Output coordinates in angstroms (scale by  1.889725989 to convert to a.u.)

  No.       Tag          Charge          X              Y              Z
 ---- ---------------- ---------- -------------- -------------- --------------
    1 C                    6.0000    -0.00020492    -1.34662255     0.00017981
    2 C                    6.0000    -1.17578872    -0.61565271    -0.00016515
    3 N                    7.0000    -1.19118797     0.71572433    -0.00006509
    4 C                    6.0000     0.00020327     1.30158951     0.00004345
    5 N                    7.0000     1.19140805     0.71532242    -0.00016686
    6 C                    6.0000     1.17560314    -0.61604464    -0.00019688
    7 H                    1.0000    -0.00039630    -2.42614905     0.00367039
    8 H                    1.0000    -2.13690766    -1.12859043    -0.00046622
    9 H                    1.0000     0.00039895     2.39259463    -0.00008605
   10 H                    1.0000     2.13659597    -1.12928103    -0.00020456

      Atomic Mass 
      ----------- 

      C                 12.000000
      N                 14.003070
      H                  1.007825


 Effective nuclear repulsion energy (a.u.)     209.8839713765

            Nuclear Dipole moment (a.u.) 
            ----------------------------
        X                 Y               Z
 ---------------- ---------------- ----------------
     0.0002043460     0.1238130207     0.0008643444


                                 NWChem DFT Module
                                 -----------------


             pyrimidine geometry optimization, PBE0/6-311G* Cartesian




 Summary of "ao basis" -> "ao basis" (cartesian)
 ------------------------------------------------------------------------------
       Tag                 Description            Shells   Functions and Types
 ---------------- ------------------------------  ------  ---------------------
 C                          6-311G*                  8       19   4s3p1d
 N                          6-311G*                  8       19   4s3p1d
 H                          6-311G*                  3        3   3s


  Caching 1-el integrals 

            General Information
            -------------------
          SCF calculation type: DFT
          Wavefunction type:  closed shell.
          No. of atoms     :    10
          No. of electrons :    42
           Alpha electrons :    21
            Beta electrons :    21
          Charge           :     0
          Spin multiplicity:     1
          Use of symmetry is: off; symmetry adaption is: off
          Maximum number of iterations: 100
          AO basis - number of functions:   126
                     number of shells:    60
          Convergence on energy requested:  1.00D-07
          Convergence on density requested:  1.00D-05
          Convergence on gradient requested:  5.00D-04

              XC Information
              --------------
                         PBE0 Method XC Functional
                     Hartree-Fock (Exact) Exchange  0.250          
          PerdewBurkeErnzerhof Exchange Functional  0.750          
            Perdew 1991 LDA Correlation Functional  1.000 local    
           PerdewBurkeErnz. Correlation Functional  1.000 non-local

             Grid Information
             ----------------
          Grid used for XC integration:  fine      
          Radial quadrature: Mura-Knowles        
          Angular quadrature: Lebedev. 
          Tag              B.-S. Rad. Rad. Pts. Rad. Cut. Ang. Pts.
          ---              ---------- --------- --------- ---------
          C                   0.70       70          11.0       590
          N                   0.65       70          11.0       590
          H                   0.35       60          13.0       590
          Grid pruning is: on 
          Number of quadrature shells:   660
          Spatial weights used:  Erf1

          Convergence Information
          -----------------------
          Convergence aids based upon iterative change in 
          total energy or number of iterations. 
          Levelshifting, if invoked, occurs when the 
          HOMO/LUMO gap drops below (HL_TOL):  1.00D-02
          DIIS, if invoked, will attempt to extrapolate 
          using up to (NFOCK): 10 stored Fock matrices.

                    Damping( 0%)  Levelshifting(0.5)       DIIS
                  --------------- ------------------- ---------------
          dE  on:    start            ASAP                start   
          dE off:    2 iters        100 iters           100 iters 


      Screening Tolerance Information
      -------------------------------
          Density screening/tol_rho:  1.00D-10
          AO Gaussian exp screening on grid/accAOfunc:  16
          CD Gaussian exp screening on grid/accCDfunc:  20
          XC Gaussian exp screening on grid/accXCfunc:  20
          Schwarz screening/accCoul:  1.00D-08


 Loading old vectors from job with title :

pyrimidine geometry optimization, PBE0/6-311G* Cartesian

   Time after variat. SCF:     33.7
   Time prior to 1st pass:     33.7

 Integral file          = /Users/bldrdge1/Downloads/repos/PlasMol/jobs/final/Step_1/pyrimidine/pyrimidine_opt.aoints.0
 Record size in doubles =  65536        No. of integs per rec  =  43688
 Max. records in memory =    995        Max. records in file   = 160139
 No. of bits per label  =      8        No. of bits per value  =     64


 #quartets = 1.349D+06 #integrals = 2.074D+07 #direct =  0.0% #cached =100.0%

  avail0,avail1,avail0-avail1                 84255                84253                    2
  avail0,avail1,avail0-avail1                 84255                84260                   -5
  avail0,avail1,avail0-avail1                 84255                84269                  -14
  avail0,avail1,avail0-avail1                 84255                84269                  -14

 Grid_pts file          = /Users/bldrdge1/Downloads/repos/PlasMol/jobs/final/Step_1/pyrimidine/pyrimidine_opt.gridpts.0
 Record size in doubles =  12289        No. of grid_pts per rec  =   3070
 Max. records in memory =    141        Max. recs in file   =    853715


           Memory utilization after 1st SCF pass: 
           Heap Space remaining (MW):       14.94            14938436
          Stack Space remaining (MW):       81.92            81919076

   convergence    iter        energy       DeltaE   RMS-Dens  Diis-err    time
 ---------------- ----- ----------------- --------- --------- ---------  ------
 d= 0,ls=0.0,diis     1   -264.0686915896 -4.74D+02  1.68D-03  1.40D-02    36.3
 d= 0,ls=0.0,diis     2   -264.0710350311 -2.34D-03  3.18D-04  9.10D-04    37.7
 d= 0,ls=0.0,diis     3   -264.0710166629  1.84D-05  1.79D-04  1.06D-03    39.1
 d= 0,ls=0.0,diis     4   -264.0711397363 -1.23D-04  4.85D-05  8.64D-05    40.6
 d= 0,ls=0.0,diis     5   -264.0711513257 -1.16D-05  8.66D-06  2.96D-06    42.1
 d= 0,ls=0.0,diis     6   -264.0711516276 -3.02D-07  2.97D-06  2.82D-07    43.5
 d= 0,ls=0.0,diis     7   -264.0711516599 -3.23D-08  9.32D-07  6.28D-08    44.9


         Total DFT energy =     -264.071151659918
      One electron energy =     -771.561226856526
           Coulomb energy =      334.323137242259
    Exchange-Corr. energy =      -36.717033422183
 Nuclear repulsion energy =      209.883971376532

 Numeric. integr. density =       42.000002277981

     Total iterative time =     11.2s



                       DFT Final Molecular Orbital Analysis
                       ------------------------------------

 Vector    1  Occ=2.000000D+00  E=-1.439377D+01
              MO Center= -2.8D-01,  7.2D-01, -1.0D-04, r^2= 1.4D+00
   Bfn.  Coefficient  Atom+Function         Bfn.  Coefficient  Atom+Function  
  ----- ------------  ---------------      ----- ------------  ---------------
    39      0.439245   3 N  s                40      0.364089   3 N  s         
    77     -0.344464   5 N  s                78     -0.285520   5 N  s         

 Vector    2  Occ=2.000000D+00  E=-1.439376D+01
              MO Center=  2.8D-01,  7.2D-01, -1.3D-04, r^2= 1.4D+00
   Bfn.  Coefficient  Atom+Function         Bfn.  Coefficient  Atom+Function  
  ----- ------------  ---------------      ----- ------------  ---------------
    77      0.439241   5 N  s                78      0.364108   5 N  s         
    39      0.344460   3 N  s                40      0.285545   3 N  s         

 Vector    3  Occ=2.000000D+00  E=-1.029663D+01
              MO Center=  2.0D-04,  1.3D+00,  4.3D-05, r^2= 2.8D-02
   Bfn.  Coefficient  Atom+Function         Bfn.  Coefficient  Atom+Function  
  ----- ------------  ---------------      ----- ------------  ---------------
    58      0.563886   4 C  s                59      0.460077   4 C  s         

 Vector    4  Occ=2.000000D+00  E=-1.028562D+01
              MO Center=  1.0D-01, -6.2D-01, -1.8D-04, r^2= 1.4D+00
   Bfn.  Coefficient  Atom+Function         Bfn.  Coefficient  Atom+Function  
  ----- ------------  ---------------      ----- ------------  ---------------
    96      0.416046   6 C  s                20      0.380533   2 C  s         
    97      0.339425   6 C  s                21      0.310447   2 C  s         

 Vector    5  Occ=2.000000D+00  E=-1.028561D+01
              MO Center= -1.0D-01, -6.2D-01, -1.8D-04, r^2= 1.4D+00
   Bfn.  Coefficient  Atom+Function         Bfn.  Coefficient  Atom+Function  
  ----- ------------  ---------------      ----- ------------  ---------------
    20      0.416072   2 C  s                96     -0.380561   6 C  s         
    21      0.339498   2 C  s                97     -0.310527   6 C  s         

 Vector    6  Occ=2.000000D+00  E=-1.025155D+01
              MO Center= -2.0D-04, -1.3D+00,  1.8D-04, r^2= 2.8D-02
   Bfn.  Coefficient  Atom+Function         Bfn.  Coefficient  Atom+Function  
  ----- ------------  ---------------      ----- ------------  ---------------
     1      0.563767   1 C  s                 2      0.459908   1 C  s         

 Vector    7  Occ=2.000000D+00  E=-1.028064D+00
              MO Center=  4.6D-05,  4.4D-01, -8.2D-05, r^2= 1.5D+00
   Bfn.  Coefficient  Atom+Function         Bfn.  Coefficient  Atom+Function  
  ----- ------------  ---------------      ----- ------------  ---------------
    44      0.264711   3 N  s                82      0.264702   5 N  s         
    63      0.241676   4 C  s                48      0.199213   3 N  s         
    86      0.199209   5 N  s                25      0.157326   2 C  s         
   101      0.157324   6 C  s                40     -0.099089   3 N  s         
    78     -0.099085   5 N  s                 6      0.093767   1 C  s         

 Vector    8  Occ=2.000000D+00  E=-9.267364D-01
              MO Center=  8.6D-05,  3.8D-01, -1.1D-04, r^2= 1.9D+00
   Bfn.  Coefficient  Atom+Function         Bfn.  Coefficient  Atom+Function  
  ----- ------------  ---------------      ----- ------------  ---------------
    44      0.320252   3 N  s                82     -0.320254   5 N  s         
    48      0.217774   3 N  s                86     -0.217777   5 N  s         
    25      0.189952   2 C  s               101     -0.189967   6 C  s         
    40     -0.116825   3 N  s                64     -0.117202   4 C  px        
    78      0.116826   5 N  s                60     -0.079112   4 C  px        

 Vector    9  Occ=2.000000D+00  E=-8.287109D-01
              MO Center= -8.5D-05, -5.1D-01,  1.7D-04, r^2= 2.2D+00
   Bfn.  Coefficient  Atom+Function         Bfn.  Coefficient  Atom+Function  
  ----- ------------  ---------------      ----- ------------  ---------------
     6      0.339999   1 C  s                63     -0.230540   4 C  s         
    25      0.209632   2 C  s               101      0.209621   6 C  s         
    10      0.144202   1 C  s                 2     -0.128977   1 C  s         
    67     -0.109095   4 C  s                29      0.106607   2 C  s         
   105      0.106601   6 C  s                44     -0.099832   3 N  s         

 Vector   10  Occ=2.000000D+00  E=-6.870031D-01
              MO Center= -3.4D-04, -2.6D-01, -9.0D-05, r^2= 3.0D+00
   Bfn.  Coefficient  Atom+Function         Bfn.  Coefficient  Atom+Function  
  ----- ------------  ---------------      ----- ------------  ---------------
    25      0.273953   2 C  s               101     -0.273874   6 C  s         
    29      0.170841   2 C  s               105     -0.170772   6 C  s         
    64      0.155876   4 C  px               44     -0.140758   3 N  s         
    82      0.140831   5 N  s                 7     -0.136522   1 C  px        
    48     -0.116359   3 N  s                86      0.116417   5 N  s         

 Vector   11  Occ=2.000000D+00  E=-6.848574D-01
              MO Center=  3.0D-04,  1.1D-01,  1.7D-04, r^2= 3.0D+00
   Bfn.  Coefficient  Atom+Function         Bfn.  Coefficient  Atom+Function  
  ----- ------------  ---------------      ----- ------------  ---------------
    63      0.282825   4 C  s                 6      0.244225   1 C  s         
    10      0.198063   1 C  s                67      0.179147   4 C  s         
    46      0.126406   3 N  py               84      0.126497   5 N  py        
    27     -0.109972   2 C  py              103     -0.109907   6 C  py        
    25     -0.103046   2 C  s               101     -0.103243   6 C  s         

 Vector   12  Occ=2.000000D+00  E=-5.627917D-01
              MO Center= -2.6D-05, -1.6D-01, -3.4D-05, r^2= 3.9D+00
   Bfn.  Coefficient  Atom+Function         Bfn.  Coefficient  Atom+Function  
  ----- ------------  ---------------      ----- ------------  ---------------
    26      0.168694   2 C  px              102     -0.168677   6 C  px        
    65     -0.158015   4 C  py                8      0.122836   1 C  py        
    29     -0.117923   2 C  s               105     -0.117937   6 C  s         
    22      0.104055   2 C  px               98     -0.104045   6 C  px        
   119     -0.102123   8 H  s               125     -0.102122  10 H  s         

 Vector   13  Occ=2.000000D+00  E=-5.403903D-01
              MO Center= -1.2D-05, -9.1D-02, -6.0D-05, r^2= 2.5D+00
   Bfn.  Coefficient  Atom+Function         Bfn.  Coefficient  Atom+Function  
  ----- ------------  ---------------      ----- ------------  ---------------
     7      0.181743   1 C  px               27      0.178544   2 C  py        
   103     -0.178531   6 C  py               64      0.174796   4 C  px        
    46     -0.167434   3 N  py               84      0.167466   5 N  py        
    60      0.122775   4 C  px               23      0.121962   2 C  py        
    99     -0.121952   6 C  py                3      0.120672   1 C  px        

 Vector   14  Occ=2.000000D+00  E=-4.915828D-01
              MO Center= -1.6D-04, -9.4D-01,  1.1D-03, r^2= 3.5D+00
   Bfn.  Coefficient  Atom+Function         Bfn.  Coefficient  Atom+Function  
  ----- ------------  ---------------      ----- ------------  ---------------
     8      0.264842   1 C  py              116     -0.195726   7 H  s         
     4      0.167572   1 C  py               12      0.164553   1 C  py        
   115     -0.161894   7 H  s                65      0.138586   4 C  py        
    25      0.127150   2 C  s               101      0.127152   6 C  s         
    44     -0.119952   3 N  s                82     -0.119957   5 N  s         

 Vector   15  Occ=2.000000D+00  E=-4.515718D-01
              MO Center=  3.5D-05,  2.6D-01, -2.5D-07, r^2= 2.4D+00
   Bfn.  Coefficient  Atom+Function         Bfn.  Coefficient  Atom+Function  
  ----- ------------  ---------------      ----- ------------  ---------------
    47      0.186287   3 N  pz               85      0.186285   5 N  pz        
    66      0.184586   4 C  pz               28      0.147345   2 C  pz        
   104      0.147346   6 C  pz               51      0.130671   3 N  pz        
    89      0.130670   5 N  pz               70      0.125956   4 C  pz        
     9      0.121811   1 C  pz               43      0.117319   3 N  pz        

 Vector   16  Occ=2.000000D+00  E=-4.385258D-01
              MO Center= -3.4D-05, -5.8D-01, -1.8D-04, r^2= 3.3D+00
   Bfn.  Coefficient  Atom+Function         Bfn.  Coefficient  Atom+Function  
  ----- ------------  ---------------      ----- ------------  ---------------
    26      0.224546   2 C  px              102      0.224529   6 C  px        
     7     -0.163531   1 C  px               22      0.144798   2 C  px        
    98      0.144788   6 C  px              119     -0.142724   8 H  s         
   125      0.142735  10 H  s                30      0.139525   2 C  px        
   106      0.139512   6 C  px                3     -0.112442   1 C  px        

 Vector   17  Occ=2.000000D+00  E=-4.306496D-01
              MO Center=  3.5D-05,  3.6D-01, -1.4D-04, r^2= 3.8D+00
   Bfn.  Coefficient  Atom+Function         Bfn.  Coefficient  Atom+Function  
  ----- ------------  ---------------      ----- ------------  ---------------
    65      0.245439   4 C  py               61      0.153509   4 C  py        
    69      0.153705   4 C  py               10      0.142826   1 C  s         
   122      0.138447   9 H  s                45     -0.135126   3 N  px        
    83      0.135103   5 N  px              119     -0.121303   8 H  s         
   125     -0.121299  10 H  s                27      0.114324   2 C  py        

 Vector   18  Occ=2.000000D+00  E=-3.379171D-01
              MO Center=  3.9D-05,  2.0D-01, -1.1D-04, r^2= 2.6D+00
   Bfn.  Coefficient  Atom+Function         Bfn.  Coefficient  Atom+Function  
  ----- ------------  ---------------      ----- ------------  ---------------
    47      0.235568   3 N  pz               85     -0.235554   5 N  pz        
    51      0.210817   3 N  pz               89     -0.210805   5 N  pz        
    28      0.190870   2 C  pz              104     -0.190891   6 C  pz        
    32      0.165471   2 C  pz              108     -0.165486   6 C  pz        
    43      0.151345   3 N  pz               81     -0.151336   5 N  pz        

 Vector   19  Occ=2.000000D+00  E=-3.209834D-01
              MO Center=  5.7D-05,  7.1D-01,  2.9D-04, r^2= 3.1D+00
   Bfn.  Coefficient  Atom+Function         Bfn.  Coefficient  Atom+Function  
  ----- ------------  ---------------      ----- ------------  ---------------
    48      0.236691   3 N  s                86      0.236678   5 N  s         
    50      0.184088   3 N  py               88      0.184042   5 N  py        
    44      0.179634   3 N  s                46      0.180154   3 N  py        
    82      0.179626   5 N  s                84      0.180111   5 N  py        
   122     -0.147372   9 H  s                49     -0.140693   3 N  px        

 Vector   20  Occ=2.000000D+00  E=-3.072236D-01
              MO Center= -5.0D-05, -3.0D-01, -4.0D-04, r^2= 2.7D+00
   Bfn.  Coefficient  Atom+Function         Bfn.  Coefficient  Atom+Function  
  ----- ------------  ---------------      ----- ------------  ---------------
     9      0.266769   1 C  pz               13      0.253057   1 C  pz        
    66     -0.218134   4 C  pz               70     -0.194886   4 C  pz        
     5      0.164398   1 C  pz               28      0.146639   2 C  pz        
   104      0.146612   6 C  pz               62     -0.133555   4 C  pz        
    32      0.113170   2 C  pz              108      0.113143   6 C  pz        

 Vector   21  Occ=2.000000D+00  E=-2.714534D-01
              MO Center=  1.7D-04,  5.2D-01, -1.9D-04, r^2= 3.2D+00
   Bfn.  Coefficient  Atom+Function         Bfn.  Coefficient  Atom+Function  
  ----- ------------  ---------------      ----- ------------  ---------------
    49      0.266861   3 N  px               87      0.266904   5 N  px        
    45      0.247642   3 N  px               83      0.247685   5 N  px        
    11      0.202923   1 C  px               41      0.171123   3 N  px        
    79      0.171151   5 N  px               64     -0.135173   4 C  px        
     7      0.117693   1 C  px               44     -0.117132   3 N  s         

 Vector   22  Occ=0.000000D+00  E=-4.287267D-02
              MO Center= -5.6D-05, -1.5D-01, -1.7D-04, r^2= 3.1D+00
   Bfn.  Coefficient  Atom+Function         Bfn.  Coefficient  Atom+Function  
  ----- ------------  ---------------      ----- ------------  ---------------
    32      0.423213   2 C  pz              108     -0.423163   6 C  pz        
    51     -0.351655   3 N  pz               89      0.351681   5 N  pz        
    28      0.250485   2 C  pz              104     -0.250461   6 C  pz        
    47     -0.200087   3 N  pz               85      0.200104   5 N  pz        
    24      0.157290   2 C  pz              100     -0.157275   6 C  pz        

 Vector   23  Occ=0.000000D+00  E=-2.943513D-02
              MO Center=  3.5D-05,  9.5D-02, -3.3D-04, r^2= 3.2D+00
   Bfn.  Coefficient  Atom+Function         Bfn.  Coefficient  Atom+Function  
  ----- ------------  ---------------      ----- ------------  ---------------
    13      0.517989   1 C  pz               70      0.466821   4 C  pz        
    66      0.296183   4 C  pz               32     -0.288087   2 C  pz        
   108     -0.288158   6 C  pz                9      0.234793   1 C  pz        
    51     -0.198951   3 N  pz               89     -0.198891   5 N  pz        
    62      0.180896   4 C  pz                5      0.157037   1 C  pz        

 Vector   24  Occ=0.000000D+00  E= 5.613296D-02
              MO Center= -2.3D-04, -2.0D+00,  2.4D-03, r^2= 6.7D+00
   Bfn.  Coefficient  Atom+Function         Bfn.  Coefficient  Atom+Function  
  ----- ------------  ---------------      ----- ------------  ---------------
   117      1.273338   7 H  s                10     -0.889401   1 C  s         
   120      0.875849   8 H  s               126      0.875898  10 H  s         
    29     -0.653420   2 C  s               105     -0.653461   6 C  s         
    12      0.548394   1 C  py               30      0.296578   2 C  px        
   106     -0.296566   6 C  px              123      0.277521   9 H  s         

 Vector   25  Occ=0.000000D+00  E= 9.396271D-02
              MO Center= -1.0D-04, -1.4D+00, -4.0D-04, r^2= 9.3D+00
   Bfn.  Coefficient  Atom+Function         Bfn.  Coefficient  Atom+Function  
  ----- ------------  ---------------      ----- ------------  ---------------
   120      1.536084   8 H  s               126     -1.536134  10 H  s         
    29     -1.169759   2 C  s               105      1.169720   6 C  s         
    30      0.670072   2 C  px              106      0.670021   6 C  px        
    31      0.351820   2 C  py              107     -0.352063   6 C  py        
    11     -0.333301   1 C  px               25     -0.127244   2 C  s         

 Vector   26  Occ=0.000000D+00  E= 1.022630D-01
              MO Center=  3.5D-04,  2.2D+00,  5.8D-04, r^2= 6.3D+00
   Bfn.  Coefficient  Atom+Function         Bfn.  Coefficient  Atom+Function  
  ----- ------------  ---------------      ----- ------------  ---------------
   123      1.998894   9 H  s                67     -1.112590   4 C  s         
    69     -1.019856   4 C  py              117     -0.825057   7 H  s         
    12     -0.525041   1 C  py               10      0.344341   1 C  s         
    48     -0.250835   3 N  s                86     -0.250827   5 N  s         
    65     -0.168855   4 C  py               63     -0.159109   4 C  s         

 Vector   27  Occ=0.000000D+00  E= 1.218758D-01
              MO Center= -4.1D-04, -1.5D+00,  2.2D-03, r^2= 9.3D+00
   Bfn.  Coefficient  Atom+Function         Bfn.  Coefficient  Atom+Function  
  ----- ------------  ---------------      ----- ------------  ---------------
   117      1.755472   7 H  s               120     -1.245590   8 H  s         
   126     -1.245379  10 H  s                12      1.213129   1 C  py        
   123      0.720855   9 H  s                10     -0.706777   1 C  s         
    30     -0.656948   2 C  px              106      0.656704   6 C  px        
    31     -0.638581   2 C  py              107     -0.638724   6 C  py        

 Vector   28  Occ=0.000000D+00  E= 1.337051D-01
              MO Center=  1.5D-05, -2.3D-02, -1.1D-03, r^2= 3.4D+00
   Bfn.  Coefficient  Atom+Function         Bfn.  Coefficient  Atom+Function  
  ----- ------------  ---------------      ----- ------------  ---------------
    13      0.635414   1 C  pz               32     -0.564644   2 C  pz        
   108     -0.564666   6 C  pz               70     -0.509013   4 C  pz        
    51      0.485964   3 N  pz               89      0.485971   5 N  pz        
    47      0.215508   3 N  pz               85      0.215510   5 N  pz        
     9      0.208264   1 C  pz               66     -0.194813   4 C  pz        

 Vector   29  Occ=0.000000D+00  E= 2.109634D-01
              MO Center= -1.2D-04, -3.9D-02,  3.2D-04, r^2= 4.9D+00
   Bfn.  Coefficient  Atom+Function         Bfn.  Coefficient  Atom+Function  
  ----- ------------  ---------------      ----- ------------  ---------------
    48      2.272900   3 N  s                86      2.272571   5 N  s         
    67     -1.925756   4 C  s                10     -1.255248   1 C  s         
    31     -1.121805   2 C  py              107     -1.121569   6 C  py        
    69      1.040264   4 C  py               29     -0.933197   2 C  s         
   105     -0.932862   6 C  s                30      0.534013   2 C  px        

 Vector   30  Occ=0.000000D+00  E= 2.144011D-01
              MO Center=  7.4D-05, -1.7D-01,  3.5D-05, r^2= 5.1D+00
   Bfn.  Coefficient  Atom+Function         Bfn.  Coefficient  Atom+Function  
  ----- ------------  ---------------      ----- ------------  ---------------
    48     -2.000463   3 N  s                86      2.000802   5 N  s         
    29      1.830925   2 C  s               105     -1.830934   6 C  s         
    11      1.094515   1 C  px               68     -1.089503   4 C  px        
    31      0.771293   2 C  py              107     -0.771680   6 C  py        
    30      0.651985   2 C  px              106      0.651532   6 C  px        

 Vector   31  Occ=0.000000D+00  E= 2.808553D-01
              MO Center=  1.8D-05, -1.0D+00, -1.0D-03, r^2= 4.3D+00
   Bfn.  Coefficient  Atom+Function         Bfn.  Coefficient  Atom+Function  
  ----- ------------  ---------------      ----- ------------  ---------------
    10      2.943381   1 C  s                29     -1.930936   2 C  s         
   105     -1.930847   6 C  s                67     -1.874249   4 C  s         
    12      1.861536   1 C  py               30     -1.277249   2 C  px        
   106      1.277399   6 C  px               48      0.921974   3 N  s         
    86      0.922489   5 N  s               116      0.844797   7 H  s         

 Vector   32  Occ=0.000000D+00  E= 3.052510D-01
              MO Center= -9.2D-05,  2.5D-01,  2.4D-04, r^2= 5.7D+00
   Bfn.  Coefficient  Atom+Function         Bfn.  Coefficient  Atom+Function  
  ----- ------------  ---------------      ----- ------------  ---------------
    68      2.455536   4 C  px               11      1.732202   1 C  px        
    29      1.591957   2 C  s               105     -1.592667   6 C  s         
    48      1.454453   3 N  s                86     -1.454125   5 N  s         
    50      0.717639   3 N  py               88     -0.717785   5 N  py        
    49      0.485101   3 N  px               87      0.484685   5 N  px        

 Vector   33  Occ=0.000000D+00  E= 3.293981D-01
              MO Center= -9.9D-05, -2.8D-01,  7.8D-04, r^2= 4.4D+00
   Bfn.  Coefficient  Atom+Function         Bfn.  Coefficient  Atom+Function  
  ----- ------------  ---------------      ----- ------------  ---------------
    10      4.750092   1 C  s                29     -3.761401   2 C  s         
   105     -3.761617   6 C  s                12      2.874860   1 C  py        
    30     -2.025197   2 C  px              106      2.024982   6 C  px        
   117      1.368743   7 H  s                48      0.999113   3 N  s         
    86      0.999446   5 N  s                50     -0.770479   3 N  py        

 Vector   34  Occ=0.000000D+00  E= 3.422198D-01
              MO Center=  1.7D-04, -2.0D-03, -2.8D-04, r^2= 6.4D+00
   Bfn.  Coefficient  Atom+Function         Bfn.  Coefficient  Atom+Function  
  ----- ------------  ---------------      ----- ------------  ---------------
    11      2.639529   1 C  px               31     -2.330376   2 C  py        
   107      2.330031   6 C  py               68     -1.968513   4 C  px        
    30      1.419852   2 C  px              106      1.421047   6 C  px        
    50     -1.003145   3 N  py               88      1.003315   5 N  py        
    49     -0.603681   3 N  px               87     -0.603526   5 N  px        

 Vector   35  Occ=0.000000D+00  E= 3.532154D-01
              MO Center= -7.1D-05, -1.2D-01,  5.1D-04, r^2= 4.7D+00
   Bfn.  Coefficient  Atom+Function         Bfn.  Coefficient  Atom+Function  
  ----- ------------  ---------------      ----- ------------  ---------------
    67     -3.285216   4 C  s                10      3.230301   1 C  s         
    31      1.081168   2 C  py              107      1.080625   6 C  py        
    30     -1.044655   2 C  px              106      1.044795   6 C  px        
    49      0.839360   3 N  px               87     -0.839077   5 N  px        
    12      0.807767   1 C  py               50      0.776800   3 N  py        

 Vector   36  Occ=0.000000D+00  E= 3.845314D-01
              MO Center= -3.6D-05, -3.8D-01,  1.2D-03, r^2= 3.9D+00
   Bfn.  Coefficient  Atom+Function         Bfn.  Coefficient  Atom+Function  
  ----- ------------  ---------------      ----- ------------  ---------------
    70      0.520512   4 C  pz               32      0.516399   2 C  pz        
   108      0.516426   6 C  pz               28     -0.449926   2 C  pz        
   104     -0.449935   6 C  pz                9     -0.413687   1 C  pz        
    66     -0.405762   4 C  pz               13      0.353253   1 C  pz        
    24     -0.118741   2 C  pz              100     -0.118743   6 C  pz        

 Vector   37  Occ=0.000000D+00  E= 4.045887D-01
              MO Center= -1.5D-04, -8.5D-01,  4.1D-04, r^2= 4.2D+00
   Bfn.  Coefficient  Atom+Function         Bfn.  Coefficient  Atom+Function  
  ----- ------------  ---------------      ----- ------------  ---------------
    29      2.567848   2 C  s               105     -2.567655   6 C  s         
    11      1.260401   1 C  px               30      1.074838   2 C  px        
   106      1.075091   6 C  px               31     -0.766373   2 C  py        
   107      0.766089   6 C  py               68      0.762237   4 C  px        
   119     -0.710528   8 H  s               125      0.710537  10 H  s         

 Vector   38  Occ=0.000000D+00  E= 4.179667D-01
              MO Center=  2.3D-04,  1.3D+00,  3.1D-04, r^2= 4.2D+00
   Bfn.  Coefficient  Atom+Function         Bfn.  Coefficient  Atom+Function  
  ----- ------------  ---------------      ----- ------------  ---------------
    29     -1.484601   2 C  s               105     -1.485193   6 C  s         
   122     -1.443335   9 H  s                10      1.375430   1 C  s         
    12      0.778346   1 C  py              123      0.766689   9 H  s         
    30     -0.637622   2 C  px              106      0.637795   6 C  px        
    69      0.538302   4 C  py              117      0.429330   7 H  s         

 Vector   39  Occ=0.000000D+00  E= 4.379453D-01
              MO Center= -1.3D-04, -9.4D-01,  9.9D-06, r^2= 4.4D+00
   Bfn.  Coefficient  Atom+Function         Bfn.  Coefficient  Atom+Function  
  ----- ------------  ---------------      ----- ------------  ---------------
    10      1.597282   1 C  s                67      0.761798   4 C  s         
   119      0.715101   8 H  s               125      0.715066  10 H  s         
   116     -0.687942   7 H  s               120     -0.610640   8 H  s         
   126     -0.610718  10 H  s                29     -0.433385   2 C  s         
   105     -0.433160   6 C  s                25     -0.403164   2 C  s         

 Vector   40  Occ=0.000000D+00  E= 4.463754D-01
              MO Center=  1.1D-04,  5.6D-01, -2.3D-05, r^2= 4.4D+00
   Bfn.  Coefficient  Atom+Function         Bfn.  Coefficient  Atom+Function  
  ----- ------------  ---------------      ----- ------------  ---------------
    70      1.192163   4 C  pz               66     -0.727132   4 C  pz        
    13     -0.697007   1 C  pz                9      0.460161   1 C  pz        
    62     -0.179573   4 C  pz               28      0.119737   2 C  pz        
   104      0.119779   6 C  pz                5      0.108996   1 C  pz        
    51     -0.100191   3 N  pz               89     -0.100188   5 N  pz        

 Vector   41  Occ=0.000000D+00  E= 4.561113D-01
              MO Center= -1.5D-04, -7.0D-01, -7.4D-04, r^2= 4.4D+00
   Bfn.  Coefficient  Atom+Function         Bfn.  Coefficient  Atom+Function  
  ----- ------------  ---------------      ----- ------------  ---------------
    32      1.030698   2 C  pz              108     -1.030681   6 C  pz        
    28     -0.625990   2 C  pz              104      0.625973   6 C  pz        
    24     -0.153514   2 C  pz              100      0.153510   6 C  pz        
    16      0.079518   1 C  dxz              51     -0.078630   3 N  pz        
    89      0.078639   5 N  pz               35     -0.071022   2 C  dxz       

 Vector   42  Occ=0.000000D+00  E= 5.123733D-01
              MO Center=  1.8D-04,  5.0D-01, -2.1D-04, r^2= 3.8D+00
   Bfn.  Coefficient  Atom+Function         Bfn.  Coefficient  Atom+Function  
  ----- ------------  ---------------      ----- ------------  ---------------
    31     -1.153222   2 C  py              107      1.153228   6 C  py        
    11      1.082354   1 C  px               48      1.080715   3 N  s         
    86     -1.080758   5 N  s                68      0.938497   4 C  px        
    25      0.545784   2 C  s               101     -0.545771   6 C  s         
    64     -0.501115   4 C  px               29     -0.481734   2 C  s         

 Vector   43  Occ=0.000000D+00  E= 5.347462D-01
              MO Center= -1.3D-04, -8.5D-01, -1.3D-03, r^2= 4.6D+00
   Bfn.  Coefficient  Atom+Function         Bfn.  Coefficient  Atom+Function  
  ----- ------------  ---------------      ----- ------------  ---------------
    13      1.668652   1 C  pz               32     -1.123853   2 C  pz        
   108     -1.123859   6 C  pz                9     -0.660260   1 C  pz        
    70      0.526928   4 C  pz               28      0.423038   2 C  pz        
   104      0.423040   6 C  pz               66     -0.273081   4 C  pz        
     5     -0.175404   1 C  pz               24      0.113991   2 C  pz        

 Vector   44  Occ=0.000000D+00  E= 5.530632D-01
              MO Center=  2.1D-05, -9.9D-01, -7.8D-05, r^2= 5.3D+00
   Bfn.  Coefficient  Atom+Function         Bfn.  Coefficient  Atom+Function  
  ----- ------------  ---------------      ----- ------------  ---------------
    11      3.374225   1 C  px               30      1.649640   2 C  px        
   106      1.650520   6 C  px               31     -1.257064   2 C  py        
   107      1.257173   6 C  py               68     -1.184439   4 C  px        
   120      1.152129   8 H  s               126     -1.152426  10 H  s         
    29      1.053271   2 C  s               105     -1.052772   6 C  s         

 Vector   45  Occ=0.000000D+00  E= 5.606363D-01
              MO Center= -3.1D-04, -2.1D-01,  5.0D-04, r^2= 4.8D+00
   Bfn.  Coefficient  Atom+Function         Bfn.  Coefficient  Atom+Function  
  ----- ------------  ---------------      ----- ------------  ---------------
    67      1.517692   4 C  s                48     -1.186479   3 N  s         
    86     -1.186445   5 N  s                10      1.086583   1 C  s         
    31      0.991232   2 C  py              107      0.990099   6 C  py        
    30     -0.952642   2 C  px              106      0.951918   6 C  px        
   117      0.892528   7 H  s                63     -0.770678   4 C  s         

 Vector   46  Occ=0.000000D+00  E= 5.954075D-01
              MO Center= -6.2D-05,  3.5D-01,  2.5D-04, r^2= 7.6D+00
   Bfn.  Coefficient  Atom+Function         Bfn.  Coefficient  Atom+Function  
  ----- ------------  ---------------      ----- ------------  ---------------
    10      2.331894   1 C  s                69     -2.083442   4 C  py        
    67     -1.683889   4 C  s               123      1.679190   9 H  s         
    30     -1.538740   2 C  px              106      1.538401   6 C  px        
   120     -1.033544   8 H  s               126     -1.033323  10 H  s         
    63      0.617488   4 C  s               117     -0.597541   7 H  s         

 Vector   47  Occ=0.000000D+00  E= 6.381778D-01
              MO Center= -7.8D-05, -9.8D-01,  1.2D-03, r^2= 5.2D+00
   Bfn.  Coefficient  Atom+Function         Bfn.  Coefficient  Atom+Function  
  ----- ------------  ---------------      ----- ------------  ---------------
    12      3.442500   1 C  py              117      2.000540   7 H  s         
    67     -1.516266   4 C  s                29     -1.343274   2 C  s         
   105     -1.342058   6 C  s                69     -1.232695   4 C  py        
    30     -1.015730   2 C  px              106      1.015642   6 C  px        
   123      0.986771   9 H  s                31     -0.874435   2 C  py        

 Vector   48  Occ=0.000000D+00  E= 6.454842D-01
              MO Center= -1.2D-04, -3.7D-01, -2.2D-04, r^2= 5.6D+00
   Bfn.  Coefficient  Atom+Function         Bfn.  Coefficient  Atom+Function  
  ----- ------------  ---------------      ----- ------------  ---------------
    29      3.351835   2 C  s               105     -3.352437   6 C  s         
    11      2.979864   1 C  px               31     -2.079574   2 C  py        
   107      2.079332   6 C  py              120     -1.055482   8 H  s         
   126      1.055378  10 H  s                25     -0.856279   2 C  s         
   101      0.856276   6 C  s                50     -0.628186   3 N  py        

 Vector   49  Occ=0.000000D+00  E= 6.837816D-01
              MO Center= -5.2D-04,  7.5D-01,  4.5D-04, r^2= 4.7D+00
   Bfn.  Coefficient  Atom+Function         Bfn.  Coefficient  Atom+Function  
  ----- ------------  ---------------      ----- ------------  ---------------
    12      1.190541   1 C  py               50     -0.960002   3 N  py        
    88     -0.959969   5 N  py               30     -0.950264   2 C  px        
   106      0.950440   6 C  px               49      0.895850   3 N  px        
    87     -0.895361   5 N  px               63     -0.670392   4 C  s         
    31     -0.589628   2 C  py              107     -0.590338   6 C  py        

 Vector   50  Occ=0.000000D+00  E= 6.909406D-01
              MO Center= -6.0D-05,  1.1D-01,  1.8D-04, r^2= 6.0D+00
   Bfn.  Coefficient  Atom+Function         Bfn.  Coefficient  Atom+Function  
  ----- ------------  ---------------      ----- ------------  ---------------
    30      1.635713   2 C  px              106     -1.635315   6 C  px        
    67     -1.548248   4 C  s                12     -1.450536   1 C  py        
    69     -1.393133   4 C  py              120      1.158078   8 H  s         
   126      1.157926  10 H  s               123      1.125428   9 H  s         
    31      1.054324   2 C  py              107      1.054596   6 C  py        

 Vector   51  Occ=0.000000D+00  E= 6.935163D-01
              MO Center=  6.9D-04, -9.9D-02, -2.6D-05, r^2= 4.2D+00
   Bfn.  Coefficient  Atom+Function         Bfn.  Coefficient  Atom+Function  
  ----- ------------  ---------------      ----- ------------  ---------------
    29      1.733304   2 C  s               105     -1.732922   6 C  s         
    11      1.229314   1 C  px               49      0.961174   3 N  px        
    87      0.961823   5 N  px                7     -0.572387   1 C  px        
    64      0.501435   4 C  px               30      0.441810   2 C  px        
   106      0.441094   6 C  px               25     -0.432884   2 C  s         

 Vector   52  Occ=0.000000D+00  E= 7.044823D-01
              MO Center=  8.8D-05,  7.3D-01, -6.7D-05, r^2= 3.8D+00
   Bfn.  Coefficient  Atom+Function         Bfn.  Coefficient  Atom+Function  
  ----- ------------  ---------------      ----- ------------  ---------------
    51      1.103812   3 N  pz               89     -1.103782   5 N  pz        
    47     -0.613508   3 N  pz               85      0.613497   5 N  pz        
    32     -0.492347   2 C  pz              108      0.492342   6 C  pz        
    43     -0.169337   3 N  pz               81      0.169334   5 N  pz        
    73      0.116722   4 C  dxz              28      0.076462   2 C  pz        

 Vector   53  Occ=0.000000D+00  E= 7.678785D-01
              MO Center= -5.7D-04, -6.4D-01,  2.0D-04, r^2= 4.5D+00
   Bfn.  Coefficient  Atom+Function         Bfn.  Coefficient  Atom+Function  
  ----- ------------  ---------------      ----- ------------  ---------------
    10      8.723137   1 C  s                29     -4.431807   2 C  s         
   105     -4.429469   6 C  s                12      1.720692   1 C  py        
    69      1.676214   4 C  py               30     -1.627460   2 C  px        
   106      1.627239   6 C  px                6     -1.457632   1 C  s         
    31      1.396478   2 C  py              107      1.394799   6 C  py        

 Vector   54  Occ=0.000000D+00  E= 7.808313D-01
              MO Center=  4.7D-04, -1.7D-01,  1.8D-04, r^2= 5.3D+00
   Bfn.  Coefficient  Atom+Function         Bfn.  Coefficient  Atom+Function  
  ----- ------------  ---------------      ----- ------------  ---------------
    29      4.512699   2 C  s               105     -4.514878   6 C  s         
    11      4.391915   1 C  px               31     -2.380003   2 C  py        
   107      2.380503   6 C  py               49     -0.885781   3 N  px        
    87     -0.886491   5 N  px               50      0.857353   3 N  py        
    88     -0.857393   5 N  py               30      0.765823   2 C  px        

 Vector   55  Occ=0.000000D+00  E= 7.925539D-01
              MO Center= -5.3D-05, -2.3D-01, -2.0D-02, r^2= 4.7D+00
   Bfn.  Coefficient  Atom+Function         Bfn.  Coefficient  Atom+Function  
  ----- ------------  ---------------      ----- ------------  ---------------
    12      3.534372   1 C  py               69      2.812802   4 C  py        
   116      1.573192   7 H  s                67     -1.310762   4 C  s         
   122     -1.057133   9 H  s                48      1.033126   3 N  s         
    86      1.033040   5 N  s               117      0.992763   7 H  s         
   123     -0.736608   9 H  s                25     -0.624631   2 C  s         

 Vector   56  Occ=0.000000D+00  E= 7.996350D-01
              MO Center=  1.4D-04,  6.9D-01,  1.7D-02, r^2= 4.4D+00
   Bfn.  Coefficient  Atom+Function         Bfn.  Coefficient  Atom+Function  
  ----- ------------  ---------------      ----- ------------  ---------------
    51      1.506550   3 N  pz               89      1.506570   5 N  pz        
    70     -1.061265   4 C  pz               32     -0.775547   2 C  pz        
   108     -0.775563   6 C  pz               13      0.683262   1 C  pz        
    47     -0.627540   3 N  pz               85     -0.627554   5 N  pz        
    43     -0.162714   3 N  pz               81     -0.162718   5 N  pz        

 Vector   57  Occ=0.000000D+00  E= 8.362719D-01
              MO Center=  9.5D-05, -4.1D-02,  2.3D-04, r^2= 5.5D+00
   Bfn.  Coefficient  Atom+Function         Bfn.  Coefficient  Atom+Function  
  ----- ------------  ---------------      ----- ------------  ---------------
    30      3.678534   2 C  px              106      3.678675   6 C  px        
    31      1.825828   2 C  py              107     -1.827088   6 C  py        
    29      1.546554   2 C  s               105     -1.547923   6 C  s         
   119      1.411416   8 H  s               125     -1.411474  10 H  s         
    68      1.333070   4 C  px              120      0.994728   8 H  s         

 Vector   58  Occ=0.000000D+00  E= 8.989795D-01
              MO Center= -1.4D-06,  6.1D-02, -2.3D-03, r^2= 5.4D+00
   Bfn.  Coefficient  Atom+Function         Bfn.  Coefficient  Atom+Function  
  ----- ------------  ---------------      ----- ------------  ---------------
    12      6.379280   1 C  py               29     -6.078001   2 C  s         
   105     -6.078308   6 C  s                67      5.876388   4 C  s         
    10      5.355367   1 C  s                31     -2.888754   2 C  py        
   107     -2.889282   6 C  py               30     -2.471240   2 C  px        
   106      2.470138   6 C  px               69     -2.220403   4 C  py        

 Vector   59  Occ=0.000000D+00  E= 1.002538D+00
              MO Center= -1.1D-04,  4.9D-01, -1.7D-04, r^2= 5.3D+00
   Bfn.  Coefficient  Atom+Function         Bfn.  Coefficient  Atom+Function  
  ----- ------------  ---------------      ----- ------------  ---------------
    68      3.686555   4 C  px               50      3.596456   3 N  py        
    88     -3.596761   5 N  py               31      3.151002   2 C  py        
   107     -3.150588   6 C  py               11     -2.859199   1 C  px        
    49      1.784991   3 N  px               87      1.783587   5 N  px        
    30     -1.620930   2 C  px              106     -1.620994   6 C  px        

 Vector   60  Occ=0.000000D+00  E= 1.025192D+00
              MO Center=  2.5D-04,  4.2D-01, -3.2D-04, r^2= 5.6D+00
   Bfn.  Coefficient  Atom+Function         Bfn.  Coefficient  Atom+Function  
  ----- ------------  ---------------      ----- ------------  ---------------
    10      8.806646   1 C  s                12      5.184193   1 C  py        
    30     -4.815089   2 C  px              106      4.815162   6 C  px        
    29     -4.072707   2 C  s               105     -4.072688   6 C  s         
    69     -4.002043   4 C  py               50      1.757218   3 N  py        
    88      1.758354   5 N  py              122      1.528164   9 H  s         

 Vector   61  Occ=0.000000D+00  E= 1.045438D+00
              MO Center= -1.3D-04, -5.7D-01,  1.4D-03, r^2= 2.3D+00
   Bfn.  Coefficient  Atom+Function         Bfn.  Coefficient  Atom+Function  
  ----- ------------  ---------------      ----- ------------  ---------------
    18      0.879064   1 C  dyz              35      0.704029   2 C  dxz       
   111     -0.703853   6 C  dxz              75     -0.574213   4 C  dyz       
    37      0.324558   2 C  dyz             113      0.324860   6 C  dyz       
    10      0.175305   1 C  s                54      0.154095   3 N  dxz       
    92     -0.154103   5 N  dxz              12      0.150773   1 C  py        

 Vector   62  Occ=0.000000D+00  E= 1.058575D+00
              MO Center= -4.2D-05, -4.3D-01, -2.8D-04, r^2= 2.3D+00
   Bfn.  Coefficient  Atom+Function         Bfn.  Coefficient  Atom+Function  
  ----- ------------  ---------------      ----- ------------  ---------------
    16      0.766944   1 C  dxz              37      0.577447   2 C  dyz       
   113     -0.577253   6 C  dyz              73      0.547542   4 C  dxz       
    35     -0.428168   2 C  dxz             111     -0.428458   6 C  dxz       
    56     -0.205080   3 N  dyz              94      0.205099   5 N  dyz       
    54     -0.115663   3 N  dxz              92     -0.115632   5 N  dxz       

 Vector   63  Occ=0.000000D+00  E= 1.118122D+00
              MO Center=  5.9D-04,  1.7D-01, -8.4D-04, r^2= 3.8D+00
   Bfn.  Coefficient  Atom+Function         Bfn.  Coefficient  Atom+Function  
  ----- ------------  ---------------      ----- ------------  ---------------
    48      6.243545   3 N  s                86      6.248228   5 N  s         
    10      6.202273   1 C  s                29     -5.180676   2 C  s         
   105     -5.181820   6 C  s                12      3.883707   1 C  py        
    67     -2.911084   4 C  s                30     -2.589213   2 C  px        
   106      2.590035   6 C  px               69      1.976933   4 C  py        

 Vector   64  Occ=0.000000D+00  E= 1.131970D+00
              MO Center= -5.3D-04,  7.5D-01,  4.3D-05, r^2= 4.0D+00
   Bfn.  Coefficient  Atom+Function         Bfn.  Coefficient  Atom+Function  
  ----- ------------  ---------------      ----- ------------  ---------------
    48      5.937465   3 N  s                86     -5.932021   5 N  s         
    68      2.515507   4 C  px               31     -2.025118   2 C  py        
   107      2.024064   6 C  py               30     -1.572392   2 C  px        
   106     -1.569760   6 C  px               49      1.516731   3 N  px        
    87      1.515412   5 N  px               44     -1.361535   3 N  s         

 Vector   65  Occ=0.000000D+00  E= 1.268806D+00
              MO Center=  1.2D-03, -2.0D-01, -2.7D-04, r^2= 2.5D+00
   Bfn.  Coefficient  Atom+Function         Bfn.  Coefficient  Atom+Function  
  ----- ------------  ---------------      ----- ------------  ---------------
    35      0.827637   2 C  dxz             111      0.829157   6 C  dxz       
    73      0.752556   4 C  dxz              37      0.466775   2 C  dyz       
   113     -0.466535   6 C  dyz              16     -0.397838   1 C  dxz       
    56     -0.240367   3 N  dyz              94      0.239146   5 N  dyz       
   104      0.110012   6 C  pz               28     -0.109398   2 C  pz        

 Vector   66  Occ=0.000000D+00  E= 1.269859D+00
              MO Center= -1.1D-03,  7.1D-01, -8.2D-05, r^2= 2.1D+00
   Bfn.  Coefficient  Atom+Function         Bfn.  Coefficient  Atom+Function  
  ----- ------------  ---------------      ----- ------------  ---------------
    75      1.439115   4 C  dyz              18      0.680313   1 C  dyz       
    70     -0.342647   4 C  pz               54     -0.242842   3 N  dxz       
    92      0.242574   5 N  dxz              51      0.195133   3 N  pz        
    89      0.194596   5 N  pz               35      0.188448   2 C  dxz       
   111     -0.180982   6 C  dxz              13      0.151936   1 C  pz        

 Vector   67  Occ=0.000000D+00  E= 1.293007D+00
              MO Center=  4.3D-05, -1.5D-01, -8.5D-04, r^2= 4.0D+00
   Bfn.  Coefficient  Atom+Function         Bfn.  Coefficient  Atom+Function  
  ----- ------------  ---------------      ----- ------------  ---------------
    48     -3.217432   3 N  s                86     -3.218163   5 N  s         
    29      3.053916   2 C  s               105      3.054230   6 C  s         
    12     -2.131529   1 C  py               67      1.888466   4 C  s         
    10     -1.750019   1 C  s               116     -0.986976   7 H  s         
    31      0.931891   2 C  py              107      0.932323   6 C  py        

 Vector   68  Occ=0.000000D+00  E= 1.341910D+00
              MO Center= -1.2D-04, -2.8D-01,  9.0D-04, r^2= 2.6D+00
   Bfn.  Coefficient  Atom+Function         Bfn.  Coefficient  Atom+Function  
  ----- ------------  ---------------      ----- ------------  ---------------
    37      1.046765   2 C  dyz             113      1.046657   6 C  dyz       
    75      0.384272   4 C  dyz              18     -0.367681   1 C  dyz       
    56     -0.342102   3 N  dyz              94     -0.342102   5 N  dyz       
    51     -0.221808   3 N  pz               89     -0.221767   5 N  pz        
     9      0.122429   1 C  pz               70      0.112780   4 C  pz        

 Vector   69  Occ=0.000000D+00  E= 1.375780D+00
              MO Center=  1.6D-04,  4.3D-01, -2.0D-05, r^2= 2.5D+00
   Bfn.  Coefficient  Atom+Function         Bfn.  Coefficient  Atom+Function  
  ----- ------------  ---------------      ----- ------------  ---------------
    73      1.127252   4 C  dxz              37     -0.565539   2 C  dyz       
   113      0.565833   6 C  dyz              16     -0.514125   1 C  dxz       
    54     -0.420567   3 N  dxz              92     -0.420598   5 N  dxz       
    35     -0.398327   2 C  dxz             111     -0.398123   6 C  dxz       
    51      0.283374   3 N  pz               89     -0.283436   5 N  pz        

 Vector   70  Occ=0.000000D+00  E= 1.500159D+00
              MO Center=  1.1D-04,  4.1D-01,  4.1D-04, r^2= 3.8D+00
   Bfn.  Coefficient  Atom+Function         Bfn.  Coefficient  Atom+Function  
  ----- ------------  ---------------      ----- ------------  ---------------
   122      1.394832   9 H  s               116     -1.041167   7 H  s         
    67     -0.867142   4 C  s                12     -0.855887   1 C  py        
    29      0.809659   2 C  s               105      0.809988   6 C  s         
    74     -0.799398   4 C  dyy              17      0.547045   1 C  dyy       
    69     -0.520904   4 C  py               76      0.486199   4 C  dzz       

 Vector   71  Occ=0.000000D+00  E= 1.532161D+00
              MO Center= -1.5D-04, -6.7D-01, -2.1D-04, r^2= 3.4D+00
   Bfn.  Coefficient  Atom+Function         Bfn.  Coefficient  Atom+Function  
  ----- ------------  ---------------      ----- ------------  ---------------
   119     -1.231156   8 H  s               125      1.231039  10 H  s         
    29      1.166979   2 C  s               105     -1.166786   6 C  s         
    33      0.585323   2 C  dxx             109     -0.585161   6 C  dxx       
    31     -0.564615   2 C  py              107      0.564650   6 C  py        
    11      0.471742   1 C  px               15     -0.473171   1 C  dxy       

 Vector   72  Occ=0.000000D+00  E= 1.559247D+00
              MO Center= -1.8D-04, -3.8D-01, -3.0D-04, r^2= 2.8D+00
   Bfn.  Coefficient  Atom+Function         Bfn.  Coefficient  Atom+Function  
  ----- ------------  ---------------      ----- ------------  ---------------
    10      2.233163   1 C  s                12      1.823004   1 C  py        
    29     -1.301431   2 C  s               105     -1.301213   6 C  s         
    48      1.261786   3 N  s                86      1.261468   5 N  s         
    67     -0.747296   4 C  s                 6     -0.662546   1 C  s         
    19     -0.614294   1 C  dzz              34     -0.503718   2 C  dxy       

 Vector   73  Occ=0.000000D+00  E= 1.570059D+00
              MO Center= -1.3D-05, -5.9D-01, -8.6D-06, r^2= 2.9D+00
   Bfn.  Coefficient  Atom+Function         Bfn.  Coefficient  Atom+Function  
  ----- ------------  ---------------      ----- ------------  ---------------
    11      1.603314   1 C  px               68     -0.982226   4 C  px        
    15      0.972413   1 C  dxy              50     -0.945634   3 N  py        
    88      0.945690   5 N  py               34      0.834212   2 C  dxy       
   110      0.834233   6 C  dxy              31     -0.611191   2 C  py        
   107      0.611067   6 C  py               29      0.565190   2 C  s         

 Vector   74  Occ=0.000000D+00  E= 1.714989D+00
              MO Center= -4.3D-05, -4.6D-01,  5.9D-04, r^2= 4.0D+00
   Bfn.  Coefficient  Atom+Function         Bfn.  Coefficient  Atom+Function  
  ----- ------------  ---------------      ----- ------------  ---------------
   116      1.363217   7 H  s                10     -1.021194   1 C  s         
    69      0.791856   4 C  py               67     -0.770459   4 C  s         
    34      0.744043   2 C  dxy             110     -0.743860   6 C  dxy       
    12      0.647998   1 C  py              119     -0.629580   8 H  s         
   125     -0.629562  10 H  s               122      0.521080   9 H  s         

 Vector   75  Occ=0.000000D+00  E= 1.762782D+00
              MO Center=  1.2D-04,  6.9D-01, -2.5D-05, r^2= 2.7D+00
   Bfn.  Coefficient  Atom+Function         Bfn.  Coefficient  Atom+Function  
  ----- ------------  ---------------      ----- ------------  ---------------
    72      1.561908   4 C  dxy              30     -1.146444   2 C  px        
   106     -1.146609   6 C  px               29     -0.772217   2 C  s         
   105      0.772164   6 C  s                49      0.684160   3 N  px        
    50      0.684642   3 N  py               87      0.683916   5 N  px        
    88     -0.684893   5 N  py               11     -0.648500   1 C  px        

 Vector   76  Occ=0.000000D+00  E= 1.829642D+00
              MO Center= -1.6D-04, -8.4D-01, -1.8D-04, r^2= 2.2D+00
   Bfn.  Coefficient  Atom+Function         Bfn.  Coefficient  Atom+Function  
  ----- ------------  ---------------      ----- ------------  ---------------
    18      1.471832   1 C  dyz              35     -1.104593   2 C  dxz       
   111      1.104623   6 C  dxz              13      0.675821   1 C  pz        
    32     -0.427963   2 C  pz              108     -0.427949   6 C  pz        
    75     -0.395522   4 C  dyz              37      0.233594   2 C  dyz       
   113      0.233208   6 C  dyz               5      0.202965   1 C  pz        

 Vector   77  Occ=0.000000D+00  E= 1.863921D+00
              MO Center=  6.9D-05,  4.1D-01,  2.2D-04, r^2= 2.8D+00
   Bfn.  Coefficient  Atom+Function         Bfn.  Coefficient  Atom+Function  
  ----- ------------  ---------------      ----- ------------  ---------------
    67      1.872509   4 C  s                69     -1.331215   4 C  py        
    76     -0.921231   4 C  dzz              71      0.767647   4 C  dxx       
    19      0.705914   1 C  dzz              29     -0.685528   2 C  s         
   105     -0.685472   6 C  s                30     -0.634977   2 C  px        
    31     -0.637691   2 C  py              106      0.634661   6 C  px        

 Vector   78  Occ=0.000000D+00  E= 1.890745D+00
              MO Center= -4.7D-05, -2.8D-01,  1.9D-04, r^2= 2.8D+00
   Bfn.  Coefficient  Atom+Function         Bfn.  Coefficient  Atom+Function  
  ----- ------------  ---------------      ----- ------------  ---------------
    29      1.997920   2 C  s               105     -1.997942   6 C  s         
    30      0.920571   2 C  px              106      0.920351   6 C  px        
    38     -0.766247   2 C  dzz             114      0.766237   6 C  dzz       
    72      0.755084   4 C  dxy              31      0.719251   2 C  py        
   107     -0.719604   6 C  py               34     -0.642359   2 C  dxy       

 Vector   79  Occ=0.000000D+00  E= 1.951045D+00
              MO Center= -6.7D-05, -6.6D-01, -3.3D-04, r^2= 2.4D+00
   Bfn.  Coefficient  Atom+Function         Bfn.  Coefficient  Atom+Function  
  ----- ------------  ---------------      ----- ------------  ---------------
    16      1.640531   1 C  dxz              35      0.842607   2 C  dxz       
   111      0.842863   6 C  dxz              37     -0.510387   2 C  dyz       
   113      0.510162   6 C  dyz              73      0.445673   4 C  dxz       
    56      0.417035   3 N  dyz              94     -0.417008   5 N  dyz       
    32      0.238101   2 C  pz              108     -0.238130   6 C  pz        

 Vector   80  Occ=0.000000D+00  E= 1.961757D+00
              MO Center= -1.4D-04, -8.9D-01,  1.6D-04, r^2= 3.0D+00
   Bfn.  Coefficient  Atom+Function         Bfn.  Coefficient  Atom+Function  
  ----- ------------  ---------------      ----- ------------  ---------------
    10      2.503695   1 C  s                29     -1.198980   2 C  s         
   105     -1.198896   6 C  s               116     -1.112177   7 H  s         
    31      0.918809   2 C  py              107      0.918520   6 C  py        
   119      0.763145   8 H  s               125      0.763135  10 H  s         
    33     -0.754749   2 C  dxx             109     -0.754883   6 C  dxx       

 Vector   81  Occ=0.000000D+00  E= 2.132501D+00
              MO Center=  8.9D-05,  4.4D-01,  3.6D-05, r^2= 4.7D+00
   Bfn.  Coefficient  Atom+Function         Bfn.  Coefficient  Atom+Function  
  ----- ------------  ---------------      ----- ------------  ---------------
   122      1.360711   9 H  s                12     -0.812259   1 C  py        
   119      0.728397   8 H  s               125      0.728417  10 H  s         
   121     -0.722883   9 H  s                69     -0.604764   4 C  py        
    67      0.451943   4 C  s               118     -0.439775   8 H  s         
   124     -0.439774  10 H  s                48     -0.420407   3 N  s         

 Vector   82  Occ=0.000000D+00  E= 2.222983D+00
              MO Center=  7.5D-05, -1.3D-01, -1.7D-04, r^2= 4.0D+00
   Bfn.  Coefficient  Atom+Function         Bfn.  Coefficient  Atom+Function  
  ----- ------------  ---------------      ----- ------------  ---------------
   119      1.170541   8 H  s               125     -1.170654  10 H  s         
    11     -0.896646   1 C  px               72     -0.676993   4 C  dxy       
    31      0.602977   2 C  py              107     -0.603178   6 C  py        
   118     -0.568246   8 H  s               124      0.568320  10 H  s         
    53     -0.510743   3 N  dxy              91     -0.510564   5 N  dxy       

 Vector   83  Occ=0.000000D+00  E= 2.234544D+00
              MO Center= -1.1D-04, -9.1D-01, -3.3D-05, r^2= 2.5D+00
   Bfn.  Coefficient  Atom+Function         Bfn.  Coefficient  Atom+Function  
  ----- ------------  ---------------      ----- ------------  ---------------
    11      2.181297   1 C  px               15      2.155455   1 C  dxy       
    29      1.634996   2 C  s               105     -1.634347   6 C  s         
    31     -0.955495   2 C  py              107      0.955404   6 C  py        
    30      0.917175   2 C  px              106      0.917098   6 C  px        
    33      0.769153   2 C  dxx             109     -0.769424   6 C  dxx       

 Vector   84  Occ=0.000000D+00  E= 2.255942D+00
              MO Center=  1.6D-04,  7.7D-01, -6.8D-05, r^2= 2.1D+00
   Bfn.  Coefficient  Atom+Function         Bfn.  Coefficient  Atom+Function  
  ----- ------------  ---------------      ----- ------------  ---------------
    54      0.931231   3 N  dxz              92     -0.931238   5 N  dxz       
    75      0.616685   4 C  dyz              62     -0.597765   4 C  pz        
    56      0.511642   3 N  dyz              94      0.511818   5 N  dyz       
    70     -0.499724   4 C  pz               66      0.435603   4 C  pz        
    37      0.319325   2 C  dyz             113      0.319115   6 C  dyz       

 Vector   85  Occ=0.000000D+00  E= 2.288589D+00
              MO Center= -1.5D-04, -7.8D-01,  6.8D-05, r^2= 3.1D+00
   Bfn.  Coefficient  Atom+Function         Bfn.  Coefficient  Atom+Function  
  ----- ------------  ---------------      ----- ------------  ---------------
    10      6.274465   1 C  s                29     -4.677559   2 C  s         
   105     -4.678040   6 C  s                12      3.775093   1 C  py        
    30     -2.305186   2 C  px              106      2.305064   6 C  px        
    67      1.604704   4 C  s                69     -1.244066   4 C  py        
   116      1.103002   7 H  s                31     -0.965652   2 C  py        

 Vector   86  Occ=0.000000D+00  E= 2.296194D+00
              MO Center=  7.2D-05,  4.2D-01, -8.0D-05, r^2= 2.6D+00
   Bfn.  Coefficient  Atom+Function         Bfn.  Coefficient  Atom+Function  
  ----- ------------  ---------------      ----- ------------  ---------------
    54      0.972892   3 N  dxz              92      0.972956   5 N  dxz       
    73      0.806520   4 C  dxz              37     -0.772100   2 C  dyz       
   113      0.772197   6 C  dyz              56     -0.640450   3 N  dyz       
    94      0.640278   5 N  dyz              16      0.456943   1 C  dxz       
    51      0.366641   3 N  pz               89     -0.366628   5 N  pz        

 Vector   87  Occ=0.000000D+00  E= 2.319943D+00
              MO Center= -1.0D-04, -7.2D-01,  8.1D-04, r^2= 4.3D+00
   Bfn.  Coefficient  Atom+Function         Bfn.  Coefficient  Atom+Function  
  ----- ------------  ---------------      ----- ------------  ---------------
   116      1.303975   7 H  s               122     -0.908158   9 H  s         
   115     -0.854053   7 H  s               119      0.604024   8 H  s         
   125      0.603956  10 H  s                 8      0.577420   1 C  py        
   121      0.524859   9 H  s                69      0.505679   4 C  py        
     4     -0.501280   1 C  py              118     -0.425568   8 H  s         

 Vector   88  Occ=0.000000D+00  E= 2.351616D+00
              MO Center= -2.5D-05,  1.4D-01, -2.8D-04, r^2= 2.7D+00
   Bfn.  Coefficient  Atom+Function         Bfn.  Coefficient  Atom+Function  
  ----- ------------  ---------------      ----- ------------  ---------------
    56      0.929759   3 N  dyz              94      0.929564   5 N  dyz       
    37      0.633574   2 C  dyz             113      0.633544   6 C  dyz       
    54     -0.474409   3 N  dxz              92      0.474659   5 N  dxz       
    24      0.443450   2 C  pz              100      0.443447   6 C  pz        
    75     -0.409922   4 C  dyz              51     -0.387705   3 N  pz        

 Vector   89  Occ=0.000000D+00  E= 2.575430D+00
              MO Center= -2.2D-03,  9.0D-01, -5.9D-05, r^2= 2.6D+00
   Bfn.  Coefficient  Atom+Function         Bfn.  Coefficient  Atom+Function  
  ----- ------------  ---------------      ----- ------------  ---------------
    48      1.983839   3 N  s                86      1.978582   5 N  s         
    67     -1.956006   4 C  s                29     -1.146317   2 C  s         
   105     -1.141690   6 C  s                63     -0.898957   4 C  s         
   122     -0.847295   9 H  s                76      0.833551   4 C  dzz       
    69      0.705543   4 C  py               25     -0.634395   2 C  s         

 Vector   90  Occ=0.000000D+00  E= 2.575783D+00
              MO Center=  2.3D-03,  1.3D-01, -1.2D-04, r^2= 3.5D+00
   Bfn.  Coefficient  Atom+Function         Bfn.  Coefficient  Atom+Function  
  ----- ------------  ---------------      ----- ------------  ---------------
    48      2.069260   3 N  s                86     -2.074162   5 N  s         
    29     -1.839530   2 C  s               105      1.842323   6 C  s         
    30     -0.961627   2 C  px              106     -0.961540   6 C  px        
    49      0.840254   3 N  px               87      0.841794   5 N  px        
   119     -0.804243   8 H  s               125      0.804646  10 H  s         

 Vector   91  Occ=0.000000D+00  E= 2.659991D+00
              MO Center= -5.3D-05, -5.8D-01, -6.7D-04, r^2= 2.3D+00
   Bfn.  Coefficient  Atom+Function         Bfn.  Coefficient  Atom+Function  
  ----- ------------  ---------------      ----- ------------  ---------------
     9      1.009535   1 C  pz                5     -0.883301   1 C  pz        
    56      0.595927   3 N  dyz              94      0.595681   5 N  dyz       
    28      0.540799   2 C  pz              104      0.540956   6 C  pz        
    37      0.500858   2 C  dyz             113      0.500679   6 C  dyz       
    24     -0.482376   2 C  pz              100     -0.482512   6 C  pz        

 Vector   92  Occ=0.000000D+00  E= 2.669701D+00
              MO Center= -7.1D-05, -1.2D-01, -1.5D-04, r^2= 2.7D+00
   Bfn.  Coefficient  Atom+Function         Bfn.  Coefficient  Atom+Function  
  ----- ------------  ---------------      ----- ------------  ---------------
    73     -0.899575   4 C  dxz              16      0.861617   1 C  dxz       
    28      0.726069   2 C  pz              104     -0.725949   6 C  pz        
    54     -0.705161   3 N  dxz              92     -0.704904   5 N  dxz       
    24     -0.614198   2 C  pz              100      0.614088   6 C  pz        
    56     -0.563247   3 N  dyz              94      0.563620   5 N  dyz       

 Vector   93  Occ=0.000000D+00  E= 2.764389D+00
              MO Center=  1.1D-04,  3.0D-01,  2.4D-04, r^2= 3.0D+00
   Bfn.  Coefficient  Atom+Function         Bfn.  Coefficient  Atom+Function  
  ----- ------------  ---------------      ----- ------------  ---------------
    67      1.667733   4 C  s                10     -1.062173   1 C  s         
    50     -0.978375   3 N  py               88     -0.978817   5 N  py        
    49     -0.835868   3 N  px               87      0.835564   5 N  px        
    53     -0.822932   3 N  dxy              91      0.823468   5 N  dxy       
    31     -0.754760   2 C  py              107     -0.754777   6 C  py        

 Vector   94  Occ=0.000000D+00  E= 2.793147D+00
              MO Center=  9.6D-05,  1.0D+00, -5.6D-05, r^2= 1.5D+00
   Bfn.  Coefficient  Atom+Function         Bfn.  Coefficient  Atom+Function  
  ----- ------------  ---------------      ----- ------------  ---------------
    66      1.430045   4 C  pz               62     -1.122910   4 C  pz        
    54     -0.692435   3 N  dxz              92      0.692261   5 N  dxz       
    70     -0.468278   4 C  pz               56     -0.354536   3 N  dyz       
    94     -0.354655   5 N  dyz              75     -0.311788   4 C  dyz       
    28     -0.226700   2 C  pz              104     -0.226588   6 C  pz        

 Vector   95  Occ=0.000000D+00  E= 2.801137D+00
              MO Center=  5.8D-05,  1.1D-01,  2.4D-05, r^2= 2.6D+00
   Bfn.  Coefficient  Atom+Function         Bfn.  Coefficient  Atom+Function  
  ----- ------------  ---------------      ----- ------------  ---------------
    56      0.977821   3 N  dyz              94     -0.978004   5 N  dyz       
    28      0.837443   2 C  pz              104     -0.837432   6 C  pz        
    73      0.770124   4 C  dxz              24     -0.657144   2 C  pz        
   100      0.657134   6 C  pz               37      0.447628   2 C  dyz       
   113     -0.447636   6 C  dyz              54      0.416187   3 N  dxz       

 Vector   96  Occ=0.000000D+00  E= 2.825717D+00
              MO Center= -3.5D-05,  2.3D-01, -2.7D-04, r^2= 2.7D+00
   Bfn.  Coefficient  Atom+Function         Bfn.  Coefficient  Atom+Function  
  ----- ------------  ---------------      ----- ------------  ---------------
    53      0.853364   3 N  dxy              91      0.852923   5 N  dxy       
    34      0.652777   2 C  dxy             110      0.653031   6 C  dxy       
    72      0.528599   4 C  dxy              48      0.503922   3 N  s         
    86     -0.504103   5 N  s                55      0.450774   3 N  dyy       
    93     -0.450956   5 N  dyy              31     -0.444477   2 C  py        

 Vector   97  Occ=0.000000D+00  E= 2.877099D+00
              MO Center= -8.4D-05,  5.7D-01, -8.5D-05, r^2= 2.6D+00
   Bfn.  Coefficient  Atom+Function         Bfn.  Coefficient  Atom+Function  
  ----- ------------  ---------------      ----- ------------  ---------------
    68      1.193769   4 C  px               50      1.031704   3 N  py        
    88     -1.031628   5 N  py               31      0.993915   2 C  py        
   107     -0.993612   6 C  py               53      0.843279   3 N  dxy       
    91      0.843714   5 N  dxy              11     -0.696874   1 C  px        
    60      0.660216   4 C  px               34      0.454942   2 C  dxy       

 Vector   98  Occ=0.000000D+00  E= 2.888644D+00
              MO Center=  1.2D-04,  1.7D-01,  3.0D-04, r^2= 3.3D+00
   Bfn.  Coefficient  Atom+Function         Bfn.  Coefficient  Atom+Function  
  ----- ------------  ---------------      ----- ------------  ---------------
    10      2.331326   1 C  s                29     -1.765042   2 C  s         
   105     -1.765083   6 C  s                12      1.299009   1 C  py        
    67      1.117862   4 C  s                69     -0.974705   4 C  py        
    74      0.848590   4 C  dyy              14     -0.796612   1 C  dxx       
   122      0.798381   9 H  s                30     -0.785728   2 C  px        

 Vector   99  Occ=0.000000D+00  E= 2.921134D+00
              MO Center= -8.6D-05, -8.2D-01, -8.3D-04, r^2= 1.8D+00
   Bfn.  Coefficient  Atom+Function         Bfn.  Coefficient  Atom+Function  
  ----- ------------  ---------------      ----- ------------  ---------------
     9      1.254167   1 C  pz                5     -0.920235   1 C  pz        
    28     -0.869735   2 C  pz              104     -0.869794   6 C  pz        
    24      0.631363   2 C  pz              100      0.631401   6 C  pz        
    13     -0.580525   1 C  pz               18      0.452209   1 C  dyz       
    35     -0.410000   2 C  dxz             111      0.410020   6 C  dxz       

 Vector  100  Occ=0.000000D+00  E= 2.976546D+00
              MO Center= -9.5D-05, -5.6D-01,  7.2D-04, r^2= 2.8D+00
   Bfn.  Coefficient  Atom+Function         Bfn.  Coefficient  Atom+Function  
  ----- ------------  ---------------      ----- ------------  ---------------
    10      1.748256   1 C  s                67     -1.404067   4 C  s         
     6      1.302150   1 C  s                17     -1.054524   1 C  dyy       
    19     -0.958359   1 C  dzz              14     -0.950886   1 C  dxx       
    25      0.906758   2 C  s               101      0.906745   6 C  s         
    63     -0.844586   4 C  s                71      0.704652   4 C  dxx       

 Vector  101  Occ=0.000000D+00  E= 3.026454D+00
              MO Center= -1.7D-06, -7.8D-01, -1.7D-04, r^2= 2.4D+00
   Bfn.  Coefficient  Atom+Function         Bfn.  Coefficient  Atom+Function  
  ----- ------------  ---------------      ----- ------------  ---------------
    29      1.611252   2 C  s               105     -1.611751   6 C  s         
    25      1.307967   2 C  s               101     -1.308039   6 C  s         
    36     -1.159962   2 C  dyy             112      1.160059   6 C  dyy       
    33     -1.104137   2 C  dxx             109      1.104212   6 C  dxx       
    38     -0.891636   2 C  dzz             114      0.891712   6 C  dzz       

 Vector  102  Occ=0.000000D+00  E= 3.094582D+00
              MO Center=  1.4D-04,  8.2D-01, -5.2D-05, r^2= 3.1D+00
   Bfn.  Coefficient  Atom+Function         Bfn.  Coefficient  Atom+Function  
  ----- ------------  ---------------      ----- ------------  ---------------
    10      3.882574   1 C  s                29     -2.125023   2 C  s         
   105     -2.125053   6 C  s                48      1.412134   3 N  s         
    86      1.412157   5 N  s                74     -1.348739   4 C  dyy       
    12      1.336037   1 C  py               63      1.224524   4 C  s         
    71     -1.195761   4 C  dxx              69      1.085433   4 C  py        

 Vector  103  Occ=0.000000D+00  E= 3.161146D+00
              MO Center=  4.6D-06, -7.8D-01,  5.0D-04, r^2= 3.5D+00
   Bfn.  Coefficient  Atom+Function         Bfn.  Coefficient  Atom+Function  
  ----- ------------  ---------------      ----- ------------  ---------------
    12      1.226712   1 C  py               48      0.983387   3 N  s         
    86      0.983449   5 N  s                30     -0.955918   2 C  px        
   106      0.955934   6 C  px                6     -0.873453   1 C  s         
    17      0.837737   1 C  dyy              31     -0.837381   2 C  py        
   107     -0.837868   6 C  py               14      0.799086   1 C  dxx       

 Vector  104  Occ=0.000000D+00  E= 3.227212D+00
              MO Center= -4.4D-04, -8.0D-01, -4.0D-05, r^2= 2.6D+00
   Bfn.  Coefficient  Atom+Function         Bfn.  Coefficient  Atom+Function  
  ----- ------------  ---------------      ----- ------------  ---------------
    11      1.593129   1 C  px               31     -1.582208   2 C  py        
   107      1.582529   6 C  py               30     -1.034693   2 C  px        
   106     -1.034195   6 C  px               48      0.992350   3 N  s         
    86     -0.992255   5 N  s                 7     -0.936782   1 C  px        
    50     -0.924984   3 N  py               88      0.924941   5 N  py        

 Vector  105  Occ=0.000000D+00  E= 3.271872D+00
              MO Center= -5.8D-05, -1.2D+00, -7.3D-05, r^2= 1.7D+00
   Bfn.  Coefficient  Atom+Function         Bfn.  Coefficient  Atom+Function  
  ----- ------------  ---------------      ----- ------------  ---------------
    12      2.531918   1 C  py              116      1.167104   7 H  s         
     8     -1.096030   1 C  py               29     -1.079037   2 C  s         
   105     -1.079240   6 C  s                 4      0.963850   1 C  py        
   115     -0.801111   7 H  s                31     -0.633736   2 C  py        
   107     -0.633425   6 C  py              117      0.610919   7 H  s         

 Vector  106  Occ=0.000000D+00  E= 3.351306D+00
              MO Center=  6.2D-05,  2.1D-01, -4.3D-05, r^2= 3.1D+00
   Bfn.  Coefficient  Atom+Function         Bfn.  Coefficient  Atom+Function  
  ----- ------------  ---------------      ----- ------------  ---------------
    10      2.933551   1 C  s                12      2.190201   1 C  py        
    29     -2.106003   2 C  s               105     -2.105905   6 C  s         
    30     -1.424402   2 C  px              106      1.424559   6 C  px        
    65      1.178101   4 C  py               48      1.148691   3 N  s         
    86      1.148459   5 N  s               116      0.886001   7 H  s         

 Vector  107  Occ=0.000000D+00  E= 3.419206D+00
              MO Center=  3.2D-05, -7.9D-02, -1.4D-04, r^2= 2.9D+00
   Bfn.  Coefficient  Atom+Function         Bfn.  Coefficient  Atom+Function  
  ----- ------------  ---------------      ----- ------------  ---------------
    50      1.361236   3 N  py               88     -1.361452   5 N  py        
    27      1.335658   2 C  py              103     -1.336033   6 C  py        
    36      0.988534   2 C  dyy             112     -0.988489   6 C  dyy       
    68      0.960054   4 C  px               29      0.857758   2 C  s         
   105     -0.858180   6 C  s                30     -0.822577   2 C  px        

 Vector  108  Occ=0.000000D+00  E= 3.485600D+00
              MO Center=  4.8D-05,  4.7D-01, -1.3D-04, r^2= 2.6D+00
   Bfn.  Coefficient  Atom+Function         Bfn.  Coefficient  Atom+Function  
  ----- ------------  ---------------      ----- ------------  ---------------
    10      3.103906   1 C  s                69     -2.293637   4 C  py        
    30     -1.784664   2 C  px              106      1.784428   6 C  px        
    12      1.582105   1 C  py               29     -1.532205   2 C  s         
   105     -1.532319   6 C  s                27      1.205870   2 C  py        
   103      1.205866   6 C  py               65      1.159193   4 C  py        

 Vector  109  Occ=0.000000D+00  E= 3.537817D+00
              MO Center=  1.0D-04,  8.8D-01, -7.0D-05, r^2= 1.8D+00
   Bfn.  Coefficient  Atom+Function         Bfn.  Coefficient  Atom+Function  
  ----- ------------  ---------------      ----- ------------  ---------------
    64      2.502335   4 C  px               48      1.571582   3 N  s         
    86     -1.571308   5 N  s                49      1.401183   3 N  px        
    87      1.400920   5 N  px               30     -1.339838   2 C  px        
   106     -1.339899   6 C  px               72     -1.317641   4 C  dxy       
    60     -1.090870   4 C  px               68      0.767579   4 C  px        

 Vector  110  Occ=0.000000D+00  E= 3.647106D+00
              MO Center=  7.0D-05,  3.7D-01, -5.4D-05, r^2= 2.7D+00
   Bfn.  Coefficient  Atom+Function         Bfn.  Coefficient  Atom+Function  
  ----- ------------  ---------------      ----- ------------  ---------------
    48      2.762307   3 N  s                86      2.762520   5 N  s         
    67     -1.721730   4 C  s                71     -1.541738   4 C  dxx       
    10      1.366272   1 C  s                29     -1.322234   2 C  s         
   105     -1.322295   6 C  s                36     -1.048967   2 C  dyy       
   112     -1.048738   6 C  dyy              49      0.893392   3 N  px        

 Vector  111  Occ=0.000000D+00  E= 3.824651D+00
              MO Center=  9.5D-05,  7.2D-01, -9.7D-05, r^2= 2.0D+00
   Bfn.  Coefficient  Atom+Function         Bfn.  Coefficient  Atom+Function  
  ----- ------------  ---------------      ----- ------------  ---------------
    47      1.093647   3 N  pz               85     -1.093630   5 N  pz        
    43     -0.913806   3 N  pz               81      0.913793   5 N  pz        
    51     -0.452410   3 N  pz               89      0.452404   5 N  pz        
    73      0.387662   4 C  dxz              37     -0.196111   2 C  dyz       
   113      0.196103   6 C  dyz              32      0.150550   2 C  pz        

 Vector  112  Occ=0.000000D+00  E= 3.873569D+00
              MO Center=  1.2D-04,  6.8D-01,  1.1D-04, r^2= 2.1D+00
   Bfn.  Coefficient  Atom+Function         Bfn.  Coefficient  Atom+Function  
  ----- ------------  ---------------      ----- ------------  ---------------
    47      1.117526   3 N  pz               85      1.117542   5 N  pz        
    43     -0.912066   3 N  pz               81     -0.912080   5 N  pz        
    51     -0.641258   3 N  pz               89     -0.641266   5 N  pz        
    70      0.403278   4 C  pz               66     -0.294991   4 C  pz        
    32      0.280646   2 C  pz              108      0.280651   6 C  pz        

 Vector  113  Occ=0.000000D+00  E= 4.130124D+00
              MO Center=  3.5D-05, -8.6D-01,  4.6D-05, r^2= 1.7D+00
   Bfn.  Coefficient  Atom+Function         Bfn.  Coefficient  Atom+Function  
  ----- ------------  ---------------      ----- ------------  ---------------
     8      2.596860   1 C  py               14      2.404207   1 C  dxx       
    26     -1.918475   2 C  px              102      1.918678   6 C  px        
    12     -1.505633   1 C  py               27      1.358851   2 C  py        
   103      1.358582   6 C  py               34      1.325585   2 C  dxy       
   110     -1.325010   6 C  dxy              33     -1.295627   2 C  dxx       

 Vector  114  Occ=0.000000D+00  E= 4.143305D+00
              MO Center= -2.5D-07,  7.8D-01, -1.1D-04, r^2= 2.6D+00
   Bfn.  Coefficient  Atom+Function         Bfn.  Coefficient  Atom+Function  
  ----- ------------  ---------------      ----- ------------  ---------------
    48      2.917585   3 N  s                86     -2.916358   5 N  s         
    68      1.168415   4 C  px                7     -1.082572   1 C  px        
    64      0.946878   4 C  px               72     -0.830463   4 C  dxy       
    57     -0.814244   3 N  dzz              95      0.814083   5 N  dzz       
    45      0.793922   3 N  px               83      0.793813   5 N  px        

 Vector  115  Occ=0.000000D+00  E= 4.253530D+00
              MO Center= -4.5D-05, -7.5D-01, -1.2D-05, r^2= 2.0D+00
   Bfn.  Coefficient  Atom+Function         Bfn.  Coefficient  Atom+Function  
  ----- ------------  ---------------      ----- ------------  ---------------
     7      3.972138   1 C  px               15      2.950495   1 C  dxy       
    26      1.959477   2 C  px              102      1.959506   6 C  px        
    34     -1.793869   2 C  dxy             110     -1.793385   6 C  dxy       
    27     -1.328819   2 C  py              103      1.328368   6 C  py        
    33      1.092519   2 C  dxx             109     -1.092840   6 C  dxx       

 Vector  116  Occ=0.000000D+00  E= 4.302013D+00
              MO Center= -3.1D-05,  5.6D-01, -3.9D-04, r^2= 2.5D+00
   Bfn.  Coefficient  Atom+Function         Bfn.  Coefficient  Atom+Function  
  ----- ------------  ---------------      ----- ------------  ---------------
    48      3.675928   3 N  s                86      3.675560   5 N  s         
    29     -2.389470   2 C  s               105     -2.389429   6 C  s         
    10      1.987448   1 C  s                12      1.773410   1 C  py        
    67     -1.566523   4 C  s                45      0.914941   3 N  px        
    83     -0.914947   5 N  px               65      0.886171   4 C  py        

 Vector  117  Occ=0.000000D+00  E= 4.924246D+00
              MO Center=  1.5D-04,  1.0D+00, -4.1D-05, r^2= 1.3D+00
   Bfn.  Coefficient  Atom+Function         Bfn.  Coefficient  Atom+Function  
  ----- ------------  ---------------      ----- ------------  ---------------
    71      1.685582   4 C  dxx              45     -1.304113   3 N  px        
    83      1.303773   5 N  px               52     -1.101982   3 N  dxx       
    90     -1.101757   5 N  dxx              65     -1.039598   4 C  py        
    46     -1.005584   3 N  py               84     -1.005963   5 N  py        
    44      0.797800   3 N  s                82      0.797831   5 N  s         

 Vector  118  Occ=0.000000D+00  E= 5.069399D+00
              MO Center= -7.3D-06,  1.9D-01, -2.0D-04, r^2= 2.1D+00
   Bfn.  Coefficient  Atom+Function         Bfn.  Coefficient  Atom+Function  
  ----- ------------  ---------------      ----- ------------  ---------------
    46      1.674495   3 N  py               84      1.674407   5 N  py        
    27      1.457146   2 C  py              103      1.457078   6 C  py        
    55     -1.411269   3 N  dyy              93     -1.411234   5 N  dyy       
    36      1.133747   2 C  dyy             112      1.133737   6 C  dyy       
    10      0.871601   1 C  s                29     -0.840539   2 C  s         

 Vector  119  Occ=0.000000D+00  E= 5.161665D+00
              MO Center=  4.3D-05,  1.1D-01, -1.3D-04, r^2= 2.1D+00
   Bfn.  Coefficient  Atom+Function         Bfn.  Coefficient  Atom+Function  
  ----- ------------  ---------------      ----- ------------  ---------------
    27      1.958392   2 C  py              103     -1.958189   6 C  py        
     7     -1.727827   1 C  px               46      1.578294   3 N  py        
    84     -1.578307   5 N  py               55     -1.501788   3 N  dyy       
    93      1.501831   5 N  dyy              15     -1.475553   1 C  dxy       
    36      1.006463   2 C  dyy             112     -1.006725   6 C  dyy       

 Vector  120  Occ=0.000000D+00  E= 5.278234D+00
              MO Center=  1.4D-04,  8.7D-01, -5.7D-05, r^2= 1.3D+00
   Bfn.  Coefficient  Atom+Function         Bfn.  Coefficient  Atom+Function  
  ----- ------------  ---------------      ----- ------------  ---------------
    64      2.840560   4 C  px               72     -2.399880   4 C  dxy       
    45      1.736188   3 N  px               83      1.735782   5 N  px        
    52      1.320990   3 N  dxx              90     -1.320694   5 N  dxx       
    46      1.085112   3 N  py               84     -1.085770   5 N  py        
    53      0.726614   3 N  dxy              91      0.727275   5 N  dxy       

 Vector  121  Occ=0.000000D+00  E= 2.647045D+01
              MO Center=  3.9D-03, -6.2D-01, -1.8D-04, r^2= 1.5D+00
   Bfn.  Coefficient  Atom+Function         Bfn.  Coefficient  Atom+Function  
  ----- ------------  ---------------      ----- ------------  ---------------
    21      1.811992   2 C  s                97     -1.818112   6 C  s         
    20     -1.490853   2 C  s                96      1.495892   6 C  s         
    25     -0.771148   2 C  s               101      0.773979   6 C  s         
   105      0.575408   6 C  s                29     -0.572161   2 C  s         
    36      0.500113   2 C  dyy             112     -0.501257   6 C  dyy       

 Vector  122  Occ=0.000000D+00  E= 2.647168D+01
              MO Center= -3.9D-03,  3.7D-01,  6.9D-05, r^2= 1.7D+00
   Bfn.  Coefficient  Atom+Function         Bfn.  Coefficient  Atom+Function  
  ----- ------------  ---------------      ----- ------------  ---------------
    59      2.026355   4 C  s                58     -1.666575   4 C  s         
     2     -1.375922   1 C  s                 1      1.133309   1 C  s         
    63     -0.868958   4 C  s                 6      0.627047   1 C  s         
    71      0.574845   4 C  dxx              21     -0.552316   2 C  s         
    97     -0.531896   6 C  s                74      0.512284   4 C  dyy       

 Vector  123  Occ=0.000000D+00  E= 2.650994D+01
              MO Center= -5.2D-05, -1.6D-01, -9.0D-05, r^2= 1.9D+00
   Bfn.  Coefficient  Atom+Function         Bfn.  Coefficient  Atom+Function  
  ----- ------------  ---------------      ----- ------------  ---------------
    21      1.386297   2 C  s                59      1.381321   4 C  s         
    97      1.386237   6 C  s                20     -1.138263   2 C  s         
    58     -1.133677   4 C  s                96     -1.138214   6 C  s         
     2      0.936050   1 C  s                10     -0.811977   1 C  s         
     1     -0.769783   1 C  s                48     -0.655064   3 N  s         

 Vector  124  Occ=0.000000D+00  E= 2.668369D+01
              MO Center= -1.2D-04, -8.7D-01,  4.1D-05, r^2= 1.2D+00
   Bfn.  Coefficient  Atom+Function         Bfn.  Coefficient  Atom+Function  
  ----- ------------  ---------------      ----- ------------  ---------------
     2      1.972610   1 C  s                 1     -1.611685   1 C  s         
    10     -1.596773   1 C  s                21     -1.055654   2 C  s         
    97     -1.055695   6 C  s                29      0.957305   2 C  s         
   105      0.957348   6 C  s                20      0.861576   2 C  s         
    96      0.861610   6 C  s                59      0.777341   4 C  s         

 Vector  125  Occ=0.000000D+00  E= 3.965473D+01
              MO Center=  1.7D-04,  7.1D-01, -1.2D-04, r^2= 1.5D+00
   Bfn.  Coefficient  Atom+Function         Bfn.  Coefficient  Atom+Function  
  ----- ------------  ---------------      ----- ------------  ---------------
    40      1.873951   3 N  s                78      1.874038   5 N  s         
    39     -1.573700   3 N  s                77     -1.573774   5 N  s         
    48     -0.861887   3 N  s                86     -0.861908   5 N  s         
    44     -0.709404   3 N  s                82     -0.709438   5 N  s         
    29      0.541981   2 C  s               105      0.542015   6 C  s         

 Vector  126  Occ=0.000000D+00  E= 3.967569D+01
              MO Center=  5.5D-05,  7.2D-01, -1.2D-04, r^2= 1.5D+00
   Bfn.  Coefficient  Atom+Function         Bfn.  Coefficient  Atom+Function  
  ----- ------------  ---------------      ----- ------------  ---------------
    40      1.876268   3 N  s                78     -1.876180   5 N  s         
    39     -1.574511   3 N  s                77      1.574438   5 N  s         
    44     -0.718559   3 N  s                82      0.718527   5 N  s         
    48     -0.685192   3 N  s                86      0.685152   5 N  s         
    55      0.496372   3 N  dyy              93     -0.496365   5 N  dyy       


 center of mass
 --------------
 x =   0.00001236 y =   0.05687603 z =  -0.00004667

 moments of inertia (a.u.)
 ------------------
         284.718181506918           0.004959194068           0.005654855435
           0.004959194068         293.267263068585           0.036548185853
           0.005654855435           0.036548185853         577.985334234456

     Multipole analysis of the density
     ---------------------------------

     L   x y z        total         alpha         beta         nuclear
     -   - - -        -----         -----         ----         -------
     0   0 0 0      0.000000    -21.000000    -21.000000     42.000000

     1   1 0 0     -0.000150     -0.000177     -0.000177      0.000204
     1   0 1 0     -0.922435     -0.523124     -0.523124      0.123813
     1   0 0 1      0.000899      0.000017      0.000017      0.000864

     2   2 0 0    -27.257527    -95.026214    -95.026214    162.794902
     2   1 1 0      0.000793      0.000920      0.000920     -0.001046
     2   1 0 1      0.000533      0.001186      0.001186     -0.001839
     2   0 2 0    -22.495612    -95.031641    -95.031641    167.567670
     2   0 1 1     -0.005513      0.013833      0.013833     -0.033178
     2   0 0 2    -26.583904    -13.291978    -13.291978      0.000052


 Parallel integral file used     475 records with       0 large values


            General Information
            -------------------
          SCF calculation type: DFT
          Wavefunction type:  closed shell.
          No. of atoms     :    10
          No. of electrons :    42
           Alpha electrons :    21
            Beta electrons :    21
          Charge           :     0
          Spin multiplicity:     1
          Use of symmetry is: off; symmetry adaption is: off
          Maximum number of iterations: 100
          AO basis - number of functions:   126
                     number of shells:    60
          Convergence on energy requested:  1.00D-07
          Convergence on density requested:  1.00D-05
          Convergence on gradient requested:  5.00D-04

              XC Information
              --------------
                         PBE0 Method XC Functional
                     Hartree-Fock (Exact) Exchange  0.250          
          PerdewBurkeErnzerhof Exchange Functional  0.750          
            Perdew 1991 LDA Correlation Functional  1.000 local    
           PerdewBurkeErnz. Correlation Functional  1.000 non-local

             Grid Information
             ----------------
          Grid used for XC integration:  fine      
          Radial quadrature: Mura-Knowles        
          Angular quadrature: Lebedev. 
          Tag              B.-S. Rad. Rad. Pts. Rad. Cut. Ang. Pts.
          ---              ---------- --------- --------- ---------
          C                   0.70       70          11.0       590
          N                   0.65       70          11.0       590
          H                   0.35       60          13.0       590
          Grid pruning is: on 
          Number of quadrature shells:   660
          Spatial weights used:  Erf1

          Convergence Information
          -----------------------
          Convergence aids based upon iterative change in 
          total energy or number of iterations. 
          Levelshifting, if invoked, occurs when the 
          HOMO/LUMO gap drops below (HL_TOL):  1.00D-02
          DIIS, if invoked, will attempt to extrapolate 
          using up to (NFOCK): 10 stored Fock matrices.

                    Damping( 0%)  Levelshifting(0.5)       DIIS
                  --------------- ------------------- ---------------
          dE  on:    start            ASAP                start   
          dE off:    2 iters        100 iters           100 iters 


      Screening Tolerance Information
      -------------------------------
          Density screening/tol_rho:  1.00D-10
          AO Gaussian exp screening on grid/accAOfunc:  16
          CD Gaussian exp screening on grid/accCDfunc:  20
          XC Gaussian exp screening on grid/accXCfunc:  20
          Schwarz screening/accCoul:  1.00D-08



                            NWChem DFT Gradient Module
                            --------------------------


             pyrimidine geometry optimization, PBE0/6-311G* Cartesian



  charge          =   0.00
  wavefunction    = closed shell



                         DFT ENERGY GRADIENTS

    atom               coordinates                        gradient
                 x          y          z           x          y          z
   1 C      -0.000387  -2.544748   0.000340    0.000011  -0.002305  -0.000175
   2 C      -2.221918  -1.163415  -0.000312    0.002729   0.001181  -0.000028
   3 N      -2.251019   1.352523  -0.000123    0.002805   0.002536   0.000073
   4 C       0.000384   2.459648   0.000082   -0.000010  -0.004915   0.000032
   5 N       2.251435   1.351763  -0.000315   -0.002801   0.002526   0.000068
   6 C       2.221568  -1.164156  -0.000372   -0.002752   0.001183  -0.000054
   7 H      -0.000749  -4.584757   0.006936   -0.000000   0.003343   0.000156
   8 H      -4.038170  -2.132727  -0.000881    0.000766  -0.002796  -0.000028
   9 H       0.000754   4.521348  -0.000163    0.000001   0.002050  -0.000034
  10 H       4.037581  -2.134032  -0.000387   -0.000749  -0.002803  -0.000011

                 ----------------------------------------
                 |  Time  |  1-e(secs)   |  2-e(secs)   |
                 ----------------------------------------
                 |  CPU   |       0.01   |       3.35   |
                 ----------------------------------------
                 |  WALL  |       0.01   |       3.35   |
                 ----------------------------------------

  Step       Energy      Delta E   Gmax     Grms     Xrms     Xmax   Walltime
  ---- ---------------- -------- -------- -------- -------- -------- --------
@    1    -264.07115166 -6.0D-03  0.00492  0.00190  0.02950  0.07560     50.0
                                                                    


                                 NWChem DFT Module
                                 -----------------


             pyrimidine geometry optimization, PBE0/6-311G* Cartesian




 Summary of "ao basis" -> "ao basis" (cartesian)
 ------------------------------------------------------------------------------
       Tag                 Description            Shells   Functions and Types
 ---------------- ------------------------------  ------  ---------------------
 C                          6-311G*                  8       19   4s3p1d
 N                          6-311G*                  8       19   4s3p1d
 H                          6-311G*                  3        3   3s


  Caching 1-el integrals 

            General Information
            -------------------
          SCF calculation type: DFT
          Wavefunction type:  closed shell.
          No. of atoms     :    10
          No. of electrons :    42
           Alpha electrons :    21
            Beta electrons :    21
          Charge           :     0
          Spin multiplicity:     1
          Use of symmetry is: off; symmetry adaption is: off
          Maximum number of iterations: 100
          AO basis - number of functions:   126
                     number of shells:    60
          Convergence on energy requested:  1.00D-07
          Convergence on density requested:  1.00D-05
          Convergence on gradient requested:  5.00D-04

              XC Information
              --------------
                         PBE0 Method XC Functional
                     Hartree-Fock (Exact) Exchange  0.250          
          PerdewBurkeErnzerhof Exchange Functional  0.750          
            Perdew 1991 LDA Correlation Functional  1.000 local    
           PerdewBurkeErnz. Correlation Functional  1.000 non-local

             Grid Information
             ----------------
          Grid used for XC integration:  fine      
          Radial quadrature: Mura-Knowles        
          Angular quadrature: Lebedev. 
          Tag              B.-S. Rad. Rad. Pts. Rad. Cut. Ang. Pts.
          ---              ---------- --------- --------- ---------
          C                   0.70       70          11.0       590
          N                   0.65       70          11.0       590
          H                   0.35       60          13.0       590
          Grid pruning is: on 
          Number of quadrature shells:   660
          Spatial weights used:  Erf1

          Convergence Information
          -----------------------
          Convergence aids based upon iterative change in 
          total energy or number of iterations. 
          Levelshifting, if invoked, occurs when the 
          HOMO/LUMO gap drops below (HL_TOL):  1.00D-02
          DIIS, if invoked, will attempt to extrapolate 
          using up to (NFOCK): 10 stored Fock matrices.

                    Damping( 0%)  Levelshifting(0.5)       DIIS
                  --------------- ------------------- ---------------
          dE  on:    start            ASAP                start   
          dE off:    2 iters        100 iters           100 iters 


      Screening Tolerance Information
      -------------------------------
          Density screening/tol_rho:  1.00D-10
          AO Gaussian exp screening on grid/accAOfunc:  16
          CD Gaussian exp screening on grid/accCDfunc:  20
          XC Gaussian exp screening on grid/accXCfunc:  20
          Schwarz screening/accCoul:  1.00D-08


 Loading old vectors from job with title :

pyrimidine geometry optimization, PBE0/6-311G* Cartesian

   Time after variat. SCF:     50.0
   Time prior to 1st pass:     50.0

 Integral file          = /Users/bldrdge1/Downloads/repos/PlasMol/jobs/final/Step_1/pyrimidine/pyrimidine_opt.aoints.0
 Record size in doubles =  65536        No. of integs per rec  =  43688
 Max. records in memory =    995        Max. records in file   = 158771
 No. of bits per label  =      8        No. of bits per value  =     64


 #quartets = 1.348D+06 #integrals = 2.137D+07 #direct =  0.0% #cached =100.0%

  avail0,avail1,avail0-avail1                 83549                83549                    0
  avail0,avail1,avail0-avail1                 83549                83549                    0
  avail0,avail1,avail0-avail1                 83549                83549                    0
  avail0,avail1,avail0-avail1                 83549                83564                  -15

 Grid_pts file          = /Users/bldrdge1/Downloads/repos/PlasMol/jobs/final/Step_1/pyrimidine/pyrimidine_opt.gridpts.0
 Record size in doubles =  12289        No. of grid_pts per rec  =   3070
 Max. records in memory =    141        Max. recs in file   =    846561


           Memory utilization after 1st SCF pass: 
           Heap Space remaining (MW):       14.94            14938436
          Stack Space remaining (MW):       81.92            81919076

   convergence    iter        energy       DeltaE   RMS-Dens  Diis-err    time
 ---------------- ----- ----------------- --------- --------- ---------  ------
 d= 0,ls=0.0,diis     1   -264.0712700671 -4.74D+02  1.24D-04  2.73D-04    52.8
 d= 0,ls=0.0,diis     2   -264.0713066645 -3.66D-05  4.23D-05  2.88D-05    54.2
 d= 0,ls=0.0,diis     3   -264.0713074765 -8.12D-07  1.79D-05  2.08D-05    55.6
 d= 0,ls=0.0,diis     4   -264.0713097688 -2.29D-06  2.84D-06  4.44D-07    57.1
 d= 0,ls=0.0,diis     5   -264.0713098132 -4.44D-08  7.90D-07  2.78D-08    58.4


         Total DFT energy =     -264.071309813173
      One electron energy =     -771.223560308353
           Coulomb energy =      334.154136771597
    Exchange-Corr. energy =      -36.712090166226
 Nuclear repulsion energy =      209.710203889809

 Numeric. integr. density =       42.000002400994

     Total iterative time =      8.4s



                       DFT Final Molecular Orbital Analysis
                       ------------------------------------

 Vector    1  Occ=2.000000D+00  E=-1.439377D+01
              MO Center=  5.2D-02,  7.1D-01, -3.1D-04, r^2= 1.4D+00
   Bfn.  Coefficient  Atom+Function         Bfn.  Coefficient  Atom+Function  
  ----- ------------  ---------------      ----- ------------  ---------------
    77     -0.403151   5 N  s                39      0.386085   3 N  s         
    78     -0.334171   5 N  s                40      0.320024   3 N  s         

 Vector    2  Occ=2.000000D+00  E=-1.439376D+01
              MO Center= -5.1D-02,  7.1D-01, -3.0D-04, r^2= 1.4D+00
   Bfn.  Coefficient  Atom+Function         Bfn.  Coefficient  Atom+Function  
  ----- ------------  ---------------      ----- ------------  ---------------
    39      0.403147   3 N  s                77      0.386081   5 N  s         
    40      0.334192   3 N  s                78      0.320046   5 N  s         

 Vector    3  Occ=2.000000D+00  E=-1.029672D+01
              MO Center=  2.1D-04,  1.3D+00, -4.3D-05, r^2= 2.8D-02
   Bfn.  Coefficient  Atom+Function         Bfn.  Coefficient  Atom+Function  
  ----- ------------  ---------------      ----- ------------  ---------------
    58      0.563890   4 C  s                59      0.460082   4 C  s         

 Vector    4  Occ=2.000000D+00  E=-1.028574D+01
              MO Center=  1.9D-01, -6.2D-01, -6.7D-05, r^2= 1.4D+00
   Bfn.  Coefficient  Atom+Function         Bfn.  Coefficient  Atom+Function  
  ----- ------------  ---------------      ----- ------------  ---------------
    96      0.429682   6 C  s                20      0.365063   2 C  s         
    97      0.350552   6 C  s                21      0.297825   2 C  s         

 Vector    5  Occ=2.000000D+00  E=-1.028573D+01
              MO Center= -1.9D-01, -6.2D-01, -7.4D-05, r^2= 1.4D+00
   Bfn.  Coefficient  Atom+Function         Bfn.  Coefficient  Atom+Function  
  ----- ------------  ---------------      ----- ------------  ---------------
    20      0.429709   2 C  s                96     -0.365094   6 C  s         
    21      0.350624   2 C  s                97     -0.297909   6 C  s         

 Vector    6  Occ=2.000000D+00  E=-1.025254D+01
              MO Center= -2.1D-04, -1.3D+00,  6.8D-04, r^2= 2.8D-02
   Bfn.  Coefficient  Atom+Function         Bfn.  Coefficient  Atom+Function  
  ----- ------------  ---------------      ----- ------------  ---------------
     1      0.563771   1 C  s                 2      0.459911   1 C  s         

 Vector    7  Occ=2.000000D+00  E=-1.026939D+00
              MO Center=  6.8D-05,  4.3D-01, -1.5D-04, r^2= 1.6D+00
   Bfn.  Coefficient  Atom+Function         Bfn.  Coefficient  Atom+Function  
  ----- ------------  ---------------      ----- ------------  ---------------
    44      0.264653   3 N  s                82      0.264651   5 N  s         
    63      0.240654   4 C  s                48      0.199370   3 N  s         
    86      0.199369   5 N  s                25      0.157987   2 C  s         
   101      0.157986   6 C  s                40     -0.099030   3 N  s         
    78     -0.099030   5 N  s                 6      0.094486   1 C  s         

 Vector    8  Occ=2.000000D+00  E=-9.263634D-01
              MO Center=  7.1D-05,  3.7D-01, -1.8D-04, r^2= 1.9D+00
   Bfn.  Coefficient  Atom+Function         Bfn.  Coefficient  Atom+Function  
  ----- ------------  ---------------      ----- ------------  ---------------
    44      0.319872   3 N  s                82     -0.319873   5 N  s         
    48      0.217331   3 N  s                86     -0.217332   5 N  s         
    25      0.190677   2 C  s               101     -0.190680   6 C  s         
    40     -0.116647   3 N  s                64     -0.116377   4 C  px        
    78      0.116648   5 N  s                60     -0.078305   4 C  px        

 Vector    9  Occ=2.000000D+00  E=-8.278519D-01
              MO Center= -7.6D-05, -5.0D-01,  2.9D-04, r^2= 2.2D+00
   Bfn.  Coefficient  Atom+Function         Bfn.  Coefficient  Atom+Function  
  ----- ------------  ---------------      ----- ------------  ---------------
     6      0.339727   1 C  s                63     -0.231893   4 C  s         
    25      0.209342   2 C  s               101      0.209340   6 C  s         
    10      0.144314   1 C  s                 2     -0.128792   1 C  s         
    67     -0.109915   4 C  s                29      0.106338   2 C  s         
   105      0.106337   6 C  s                44     -0.100285   3 N  s         

 Vector   10  Occ=2.000000D+00  E=-6.862862D-01
              MO Center=  2.3D-04, -2.5D-01, -1.6D-05, r^2= 3.0D+00
   Bfn.  Coefficient  Atom+Function         Bfn.  Coefficient  Atom+Function  
  ----- ------------  ---------------      ----- ------------  ---------------
    25      0.273467   2 C  s               101     -0.273540   6 C  s         
    29      0.171249   2 C  s               105     -0.171313   6 C  s         
    64      0.156534   4 C  px               44     -0.142155   3 N  s         
    82      0.142083   5 N  s                 7     -0.136144   1 C  px        
    48     -0.117763   3 N  s                86      0.117708   5 N  s         

 Vector   11  Occ=2.000000D+00  E=-6.850804D-01
              MO Center= -2.5D-04,  1.0D-01,  1.4D-04, r^2= 3.0D+00
   Bfn.  Coefficient  Atom+Function         Bfn.  Coefficient  Atom+Function  
  ----- ------------  ---------------      ----- ------------  ---------------
    63      0.282105   4 C  s                 6      0.245199   1 C  s         
    10      0.199458   1 C  s                67      0.177984   4 C  s         
    46      0.125572   3 N  py               84      0.125529   5 N  py        
    27     -0.109422   2 C  py              103     -0.109437   6 C  py        
    25     -0.102742   2 C  s               101     -0.102549   6 C  s         

 Vector   12  Occ=2.000000D+00  E=-5.630245D-01
              MO Center= -9.7D-06, -1.5D-01,  1.0D-05, r^2= 3.9D+00
   Bfn.  Coefficient  Atom+Function         Bfn.  Coefficient  Atom+Function  
  ----- ------------  ---------------      ----- ------------  ---------------
    26      0.167735   2 C  px              102     -0.167719   6 C  px        
    65     -0.159500   4 C  py                8      0.121688   1 C  py        
    29     -0.117771   2 C  s               105     -0.117774   6 C  s         
    22      0.103483   2 C  px               98     -0.103473   6 C  px        
   119     -0.102210   8 H  s               125     -0.102211  10 H  s         

 Vector   13  Occ=2.000000D+00  E=-5.393785D-01
              MO Center= -7.5D-06, -1.0D-01,  6.5D-06, r^2= 2.5D+00
   Bfn.  Coefficient  Atom+Function         Bfn.  Coefficient  Atom+Function  
  ----- ------------  ---------------      ----- ------------  ---------------
     7      0.184719   1 C  px               27      0.178018   2 C  py        
   103     -0.178001   6 C  py               64      0.174056   4 C  px        
    46     -0.165881   3 N  py               84      0.165912   5 N  py        
     3      0.122622   1 C  px               23      0.121574   2 C  py        
    60      0.121876   4 C  px               99     -0.121561   6 C  py        

 Vector   14  Occ=2.000000D+00  E=-4.905254D-01
              MO Center= -1.5D-04, -9.3D-01,  1.2D-03, r^2= 3.5D+00
   Bfn.  Coefficient  Atom+Function         Bfn.  Coefficient  Atom+Function  
  ----- ------------  ---------------      ----- ------------  ---------------
     8      0.265106   1 C  py              116     -0.195665   7 H  s         
     4      0.167605   1 C  py               12      0.165900   1 C  py        
   115     -0.161397   7 H  s                65      0.139674   4 C  py        
    25      0.126714   2 C  s               101      0.126713   6 C  s         
    44     -0.120802   3 N  s                82     -0.120803   5 N  s         

 Vector   15  Occ=2.000000D+00  E=-4.508707D-01
              MO Center=  4.3D-05,  2.5D-01, -2.3D-05, r^2= 2.4D+00
   Bfn.  Coefficient  Atom+Function         Bfn.  Coefficient  Atom+Function  
  ----- ------------  ---------------      ----- ------------  ---------------
    47      0.185948   3 N  pz               85      0.185948   5 N  pz        
    66      0.183695   4 C  pz               28      0.147785   2 C  pz        
   104      0.147785   6 C  pz               51      0.130750   3 N  pz        
    89      0.130750   5 N  pz               70      0.125737   4 C  pz        
     9      0.122626   1 C  pz               43      0.117133   3 N  pz        

 Vector   16  Occ=2.000000D+00  E=-4.402954D-01
              MO Center= -7.1D-06, -5.8D-01, -1.0D-04, r^2= 3.4D+00
   Bfn.  Coefficient  Atom+Function         Bfn.  Coefficient  Atom+Function  
  ----- ------------  ---------------      ----- ------------  ---------------
    26      0.223639   2 C  px              102      0.223630   6 C  px        
     7     -0.160824   1 C  px               22      0.144240   2 C  px        
    98      0.144235   6 C  px              119     -0.143208   8 H  s         
   125      0.143223  10 H  s                30      0.138779   2 C  px        
   106      0.138770   6 C  px              118     -0.112359   8 H  s         

 Vector   17  Occ=2.000000D+00  E=-4.301398D-01
              MO Center= -1.8D-05,  3.5D-01, -1.8D-04, r^2= 3.8D+00
   Bfn.  Coefficient  Atom+Function         Bfn.  Coefficient  Atom+Function  
  ----- ------------  ---------------      ----- ------------  ---------------
    65      0.244242   4 C  py               61      0.152846   4 C  py        
    69      0.152849   4 C  py               10      0.141646   1 C  s         
   122      0.137376   9 H  s                45     -0.135100   3 N  px        
    83      0.135088   5 N  px              119     -0.121532   8 H  s         
   125     -0.121514  10 H  s                27      0.115026   2 C  py        

 Vector   18  Occ=2.000000D+00  E=-3.378374D-01
              MO Center=  3.8D-05,  1.9D-01, -1.9D-04, r^2= 2.6D+00
   Bfn.  Coefficient  Atom+Function         Bfn.  Coefficient  Atom+Function  
  ----- ------------  ---------------      ----- ------------  ---------------
    47      0.235223   3 N  pz               85     -0.235221   5 N  pz        
    51      0.210657   3 N  pz               89     -0.210656   5 N  pz        
    28      0.191093   2 C  pz              104     -0.191097   6 C  pz        
    32      0.165710   2 C  pz              108     -0.165713   6 C  pz        
    43      0.151167   3 N  pz               81     -0.151166   5 N  pz        

 Vector   19  Occ=2.000000D+00  E=-3.208862D-01
              MO Center=  1.0D-04,  7.0D-01,  5.7D-05, r^2= 3.2D+00
   Bfn.  Coefficient  Atom+Function         Bfn.  Coefficient  Atom+Function  
  ----- ------------  ---------------      ----- ------------  ---------------
    48      0.235406   3 N  s                86      0.235402   5 N  s         
    50      0.184660   3 N  py               88      0.184615   5 N  py        
    46      0.180390   3 N  py               84      0.180348   5 N  py        
    44      0.178949   3 N  s                82      0.178947   5 N  s         
   122     -0.145647   9 H  s                49     -0.140745   3 N  px        

 Vector   20  Occ=2.000000D+00  E=-3.067246D-01
              MO Center= -4.2D-05, -3.0D-01,  2.0D-05, r^2= 2.7D+00
   Bfn.  Coefficient  Atom+Function         Bfn.  Coefficient  Atom+Function  
  ----- ------------  ---------------      ----- ------------  ---------------
     9      0.266656   1 C  pz               13      0.252912   1 C  pz        
    66     -0.218716   4 C  pz               70     -0.195899   4 C  pz        
     5      0.164331   1 C  pz               28      0.146140   2 C  pz        
   104      0.146137   6 C  pz               62     -0.133902   4 C  pz        
    32      0.112765   2 C  pz               47     -0.112346   3 N  pz        

 Vector   21  Occ=2.000000D+00  E=-2.714068D-01
              MO Center=  1.1D-04,  5.2D-01, -3.6D-04, r^2= 3.2D+00
   Bfn.  Coefficient  Atom+Function         Bfn.  Coefficient  Atom+Function  
  ----- ------------  ---------------      ----- ------------  ---------------
    49      0.267171   3 N  px               87      0.267205   5 N  px        
    45      0.248213   3 N  px               83      0.248246   5 N  px        
    11      0.202611   1 C  px               41      0.171417   3 N  px        
    79      0.171439   5 N  px               64     -0.135711   4 C  px        
    44     -0.117417   3 N  s                82      0.117419   5 N  s         

 Vector   22  Occ=0.000000D+00  E=-4.286464D-02
              MO Center= -1.4D-05, -1.6D-01, -1.6D-04, r^2= 3.1D+00
   Bfn.  Coefficient  Atom+Function         Bfn.  Coefficient  Atom+Function  
  ----- ------------  ---------------      ----- ------------  ---------------
    32      0.422552   2 C  pz              108     -0.422559   6 C  pz        
    51     -0.351884   3 N  pz               89      0.351881   5 N  pz        
    28      0.250282   2 C  pz              104     -0.250286   6 C  pz        
    47     -0.200341   3 N  pz               85      0.200338   5 N  pz        
    24      0.157150   2 C  pz              100     -0.157153   6 C  pz        

 Vector   23  Occ=0.000000D+00  E=-2.995669D-02
              MO Center=  1.8D-05,  9.7D-02, -6.7D-06, r^2= 3.2D+00
   Bfn.  Coefficient  Atom+Function         Bfn.  Coefficient  Atom+Function  
  ----- ------------  ---------------      ----- ------------  ---------------
    13      0.516314   1 C  pz               70      0.466640   4 C  pz        
    66      0.296390   4 C  pz               32     -0.286832   2 C  pz        
   108     -0.286822   6 C  pz                9      0.234437   1 C  pz        
    51     -0.199227   3 N  pz               89     -0.199235   5 N  pz        
    62      0.181109   4 C  pz                5      0.156888   1 C  pz        

 Vector   24  Occ=0.000000D+00  E= 5.621687D-02
              MO Center= -3.2D-04, -2.0D+00,  1.9D-03, r^2= 6.8D+00
   Bfn.  Coefficient  Atom+Function         Bfn.  Coefficient  Atom+Function  
  ----- ------------  ---------------      ----- ------------  ---------------
   117      1.267167   7 H  s                10     -0.897072   1 C  s         
   120      0.878967   8 H  s               126      0.878965  10 H  s         
    29     -0.645306   2 C  s               105     -0.645307   6 C  s         
    12      0.537744   1 C  py               30      0.304426   2 C  px        
   106     -0.304383   6 C  px              123      0.276622   9 H  s         

 Vector   25  Occ=0.000000D+00  E= 9.435098D-02
              MO Center= -1.2D-04, -1.4D+00, -3.7D-04, r^2= 9.4D+00
   Bfn.  Coefficient  Atom+Function         Bfn.  Coefficient  Atom+Function  
  ----- ------------  ---------------      ----- ------------  ---------------
   120      1.538859   8 H  s               126     -1.538916  10 H  s         
    29     -1.160107   2 C  s               105      1.160105   6 C  s         
    30      0.677406   2 C  px              106      0.677340   6 C  px        
    31      0.333546   2 C  py              107     -0.333778   6 C  py        
    11     -0.314676   1 C  px               25     -0.126655   2 C  s         

 Vector   26  Occ=0.000000D+00  E= 1.024762D-01
              MO Center=  3.5D-04,  2.2D+00,  6.6D-04, r^2= 6.5D+00
   Bfn.  Coefficient  Atom+Function         Bfn.  Coefficient  Atom+Function  
  ----- ------------  ---------------      ----- ------------  ---------------
   123      1.994108   9 H  s                67     -1.110426   4 C  s         
    69     -1.014722   4 C  py              117     -0.847546   7 H  s         
    12     -0.544840   1 C  py               10      0.348410   1 C  s         
    48     -0.260500   3 N  s                86     -0.260497   5 N  s         
   120      0.175200   8 H  s               126      0.175121  10 H  s         

 Vector   27  Occ=0.000000D+00  E= 1.207892D-01
              MO Center= -3.0D-04, -1.5D+00,  1.7D-03, r^2= 9.5D+00
   Bfn.  Coefficient  Atom+Function         Bfn.  Coefficient  Atom+Function  
  ----- ------------  ---------------      ----- ------------  ---------------
   117      1.725637   7 H  s               120     -1.232520   8 H  s         
   126     -1.232446  10 H  s                12      1.205762   1 C  py        
   123      0.753910   9 H  s                10     -0.672605   1 C  s         
    30     -0.663264   2 C  px              106      0.663045   6 C  px        
    31     -0.627172   2 C  py              107     -0.627360   6 C  py        

 Vector   28  Occ=0.000000D+00  E= 1.331949D-01
              MO Center= -8.2D-07, -3.1D-02, -5.6D-04, r^2= 3.5D+00
   Bfn.  Coefficient  Atom+Function         Bfn.  Coefficient  Atom+Function  
  ----- ------------  ---------------      ----- ------------  ---------------
    13      0.635985   1 C  pz               32     -0.565384   2 C  pz        
   108     -0.565384   6 C  pz               70     -0.505076   4 C  pz        
    51      0.484220   3 N  pz               89      0.484219   5 N  pz        
    47      0.215046   3 N  pz               85      0.215046   5 N  pz        
     9      0.208503   1 C  pz               66     -0.194505   4 C  pz        

 Vector   29  Occ=0.000000D+00  E= 2.109222D-01
              MO Center=  3.7D-05, -6.4D-02,  2.2D-04, r^2= 4.9D+00
   Bfn.  Coefficient  Atom+Function         Bfn.  Coefficient  Atom+Function  
  ----- ------------  ---------------      ----- ------------  ---------------
    48      2.254623   3 N  s                86      2.254742   5 N  s         
    67     -1.910923   4 C  s                10     -1.286358   1 C  s         
    31     -1.121794   2 C  py              107     -1.121680   6 C  py        
    69      1.036123   4 C  py               29     -0.913153   2 C  s         
   105     -0.913261   6 C  s                30      0.551143   2 C  px        

 Vector   30  Occ=0.000000D+00  E= 2.143289D-01
              MO Center= -5.8D-05, -1.7D-01,  2.0D-04, r^2= 5.1D+00
   Bfn.  Coefficient  Atom+Function         Bfn.  Coefficient  Atom+Function  
  ----- ------------  ---------------      ----- ------------  ---------------
    48     -2.000494   3 N  s                86      2.000337   5 N  s         
    29      1.824378   2 C  s               105     -1.824268   6 C  s         
    11      1.091165   1 C  px               68     -1.094329   4 C  px        
    31      0.771941   2 C  py              107     -0.772084   6 C  py        
    30      0.654154   2 C  px              106      0.653907   6 C  px        

 Vector   31  Occ=0.000000D+00  E= 2.776076D-01
              MO Center= -1.0D-04, -1.0D+00, -5.4D-04, r^2= 4.4D+00
   Bfn.  Coefficient  Atom+Function         Bfn.  Coefficient  Atom+Function  
  ----- ------------  ---------------      ----- ------------  ---------------
    10      2.959992   1 C  s                29     -1.977805   2 C  s         
   105     -1.977859   6 C  s                12      1.875957   1 C  py        
    67     -1.862801   4 C  s                30     -1.280044   2 C  px        
   106      1.280205   6 C  px               48      0.973285   3 N  s         
    86      0.973451   5 N  s               116      0.827625   7 H  s         

 Vector   32  Occ=0.000000D+00  E= 3.048663D-01
              MO Center=  1.6D-05,  2.7D-01,  5.1D-04, r^2= 5.7D+00
   Bfn.  Coefficient  Atom+Function         Bfn.  Coefficient  Atom+Function  
  ----- ------------  ---------------      ----- ------------  ---------------
    68      2.471255   4 C  px               11      1.674252   1 C  px        
    29      1.571170   2 C  s               105     -1.571437   6 C  s         
    48      1.427119   3 N  s                86     -1.427017   5 N  s         
    50      0.732289   3 N  py               88     -0.732460   5 N  py        
    49      0.492325   3 N  px               87      0.492037   5 N  px        

 Vector   33  Occ=0.000000D+00  E= 3.291807D-01
              MO Center= -3.9D-05, -2.7D-01,  5.3D-04, r^2= 4.4D+00
   Bfn.  Coefficient  Atom+Function         Bfn.  Coefficient  Atom+Function  
  ----- ------------  ---------------      ----- ------------  ---------------
    10      4.614856   1 C  s                29     -3.738557   2 C  s         
   105     -3.738573   6 C  s                12      2.811844   1 C  py        
    30     -1.973226   2 C  px              106      1.973083   6 C  px        
   117      1.342674   7 H  s                48      0.999187   3 N  s         
    86      0.999258   5 N  s                50     -0.799308   3 N  py        

 Vector   34  Occ=0.000000D+00  E= 3.440614D-01
              MO Center=  5.4D-05, -3.7D-02, -3.7D-04, r^2= 6.4D+00
   Bfn.  Coefficient  Atom+Function         Bfn.  Coefficient  Atom+Function  
  ----- ------------  ---------------      ----- ------------  ---------------
    11      2.726107   1 C  px               31     -2.367891   2 C  py        
   107      2.367480   6 C  py               68     -1.914542   4 C  px        
    30      1.456474   2 C  px              106      1.457310   6 C  px        
    50     -0.996034   3 N  py               88      0.996267   5 N  py        
    49     -0.596608   3 N  px               87     -0.596351   5 N  px        

 Vector   35  Occ=0.000000D+00  E= 3.543415D-01
              MO Center= -8.1D-05, -1.6D-01,  1.1D-04, r^2= 4.8D+00
   Bfn.  Coefficient  Atom+Function         Bfn.  Coefficient  Atom+Function  
  ----- ------------  ---------------      ----- ------------  ---------------
    10      3.474613   1 C  s                67     -3.249094   4 C  s         
    30     -1.139069   2 C  px              106      1.139327   6 C  px        
    31      1.096123   2 C  py              107      1.095617   6 C  py        
    12      0.909110   1 C  py               49      0.836094   3 N  px        
    87     -0.835821   5 N  px               50      0.763047   3 N  py        

 Vector   36  Occ=0.000000D+00  E= 3.846199D-01
              MO Center= -4.9D-05, -3.8D-01,  8.5D-04, r^2= 3.9D+00
   Bfn.  Coefficient  Atom+Function         Bfn.  Coefficient  Atom+Function  
  ----- ------------  ---------------      ----- ------------  ---------------
    32      0.518877   2 C  pz               70      0.518864   4 C  pz        
   108      0.518884   6 C  pz               28     -0.450399   2 C  pz        
   104     -0.450402   6 C  pz                9     -0.413619   1 C  pz        
    66     -0.404639   4 C  pz               13      0.351279   1 C  pz        
    24     -0.118795   2 C  pz              100     -0.118796   6 C  pz        

 Vector   37  Occ=0.000000D+00  E= 4.013359D-01
              MO Center= -1.4D-04, -8.5D-01,  7.1D-04, r^2= 4.2D+00
   Bfn.  Coefficient  Atom+Function         Bfn.  Coefficient  Atom+Function  
  ----- ------------  ---------------      ----- ------------  ---------------
    29      2.592169   2 C  s               105     -2.592077   6 C  s         
    11      1.269359   1 C  px               30      1.039121   2 C  px        
   106      1.039278   6 C  px               68      0.773143   4 C  px        
    31     -0.729336   2 C  py              107      0.728961   6 C  py        
   119     -0.721645   8 H  s               125      0.721666  10 H  s         

 Vector   38  Occ=0.000000D+00  E= 4.186855D-01
              MO Center=  2.1D-04,  1.2D+00,  5.3D-04, r^2= 4.2D+00
   Bfn.  Coefficient  Atom+Function         Bfn.  Coefficient  Atom+Function  
  ----- ------------  ---------------      ----- ------------  ---------------
    29     -1.482762   2 C  s               105     -1.482847   6 C  s         
    10      1.449072   1 C  s               122     -1.446626   9 H  s         
    12      0.778610   1 C  py              123      0.747151   9 H  s         
    30     -0.638644   2 C  px              106      0.638609   6 C  px        
    69      0.549583   4 C  py              117      0.445307   7 H  s         

 Vector   39  Occ=0.000000D+00  E= 4.372020D-01
              MO Center= -1.4D-04, -9.0D-01, -1.1D-04, r^2= 4.5D+00
   Bfn.  Coefficient  Atom+Function         Bfn.  Coefficient  Atom+Function  
  ----- ------------  ---------------      ----- ------------  ---------------
    10      1.301357   1 C  s                67      0.841593   4 C  s         
   119      0.722257   8 H  s               125      0.722233  10 H  s         
   116     -0.670497   7 H  s               120     -0.591137   8 H  s         
   126     -0.591130  10 H  s                25     -0.415781   2 C  s         
   101     -0.415803   6 C  s                63     -0.387356   4 C  s         

 Vector   40  Occ=0.000000D+00  E= 4.467319D-01
              MO Center=  9.3D-05,  5.6D-01,  1.4D-04, r^2= 4.4D+00
   Bfn.  Coefficient  Atom+Function         Bfn.  Coefficient  Atom+Function  
  ----- ------------  ---------------      ----- ------------  ---------------
    70      1.193014   4 C  pz               66     -0.728227   4 C  pz        
    13     -0.696533   1 C  pz                9      0.458683   1 C  pz        
    62     -0.179807   4 C  pz               28      0.119942   2 C  pz        
   104      0.119940   6 C  pz                5      0.108554   1 C  pz        
    51     -0.100400   3 N  pz               89     -0.100400   5 N  pz        

 Vector   41  Occ=0.000000D+00  E= 4.561694D-01
              MO Center= -1.0D-04, -7.0D-01, -6.1D-04, r^2= 4.4D+00
   Bfn.  Coefficient  Atom+Function         Bfn.  Coefficient  Atom+Function  
  ----- ------------  ---------------      ----- ------------  ---------------
    32      1.029748   2 C  pz              108     -1.029752   6 C  pz        
    28     -0.625923   2 C  pz              104      0.625924   6 C  pz        
    24     -0.153537   2 C  pz              100      0.153537   6 C  pz        
    16      0.079947   1 C  dxz              51     -0.078590   3 N  pz        
    89      0.078591   5 N  pz               35     -0.071114   2 C  dxz       

 Vector   42  Occ=0.000000D+00  E= 5.122804D-01
              MO Center=  1.2D-04,  5.1D-01, -3.2D-04, r^2= 3.8D+00
   Bfn.  Coefficient  Atom+Function         Bfn.  Coefficient  Atom+Function  
  ----- ------------  ---------------      ----- ------------  ---------------
    31     -1.120002   2 C  py              107      1.119992   6 C  py        
    48      1.072397   3 N  s                86     -1.072400   5 N  s         
    11      1.050545   1 C  px               68      0.972899   4 C  px        
    25      0.537869   2 C  s               101     -0.537870   6 C  s         
    64     -0.507779   4 C  px               29     -0.460429   2 C  s         

 Vector   43  Occ=0.000000D+00  E= 5.346346D-01
              MO Center= -1.3D-04, -8.6D-01, -4.7D-04, r^2= 4.6D+00
   Bfn.  Coefficient  Atom+Function         Bfn.  Coefficient  Atom+Function  
  ----- ------------  ---------------      ----- ------------  ---------------
    13      1.669872   1 C  pz               32     -1.123279   2 C  pz        
   108     -1.123272   6 C  pz                9     -0.661399   1 C  pz        
    70      0.524683   4 C  pz               28      0.422353   2 C  pz        
   104      0.422349   6 C  pz               66     -0.272627   4 C  pz        
     5     -0.175717   1 C  pz               24      0.113770   2 C  pz        

 Vector   44  Occ=0.000000D+00  E= 5.520653D-01
              MO Center= -1.3D-04, -9.9D-01,  1.8D-04, r^2= 5.3D+00
   Bfn.  Coefficient  Atom+Function         Bfn.  Coefficient  Atom+Function  
  ----- ------------  ---------------      ----- ------------  ---------------
    11      3.337543   1 C  px               30      1.640411   2 C  px        
   106      1.640764   6 C  px               31     -1.229444   2 C  py        
   107      1.228985   6 C  py               68     -1.160682   4 C  px        
   120      1.148782   8 H  s               126     -1.148793  10 H  s         
    29      1.012093   2 C  s               105     -1.011909   6 C  s         

 Vector   45  Occ=0.000000D+00  E= 5.594080D-01
              MO Center= -8.5D-05, -2.2D-01,  5.5D-04, r^2= 4.8D+00
   Bfn.  Coefficient  Atom+Function         Bfn.  Coefficient  Atom+Function  
  ----- ------------  ---------------      ----- ------------  ---------------
    67      1.544887   4 C  s                48     -1.187754   3 N  s         
    86     -1.187722   5 N  s                10      1.037824   1 C  s         
    31      0.990367   2 C  py              107      0.989944   6 C  py        
    30     -0.934677   2 C  px              106      0.934870   6 C  px        
   117      0.895694   7 H  s                63     -0.772774   4 C  s         

 Vector   46  Occ=0.000000D+00  E= 5.954444D-01
              MO Center=  5.8D-05,  3.4D-01,  3.9D-04, r^2= 7.6D+00
   Bfn.  Coefficient  Atom+Function         Bfn.  Coefficient  Atom+Function  
  ----- ------------  ---------------      ----- ------------  ---------------
    10      2.437034   1 C  s                69     -2.084514   4 C  py        
   123      1.679678   9 H  s                67     -1.660923   4 C  s         
    30     -1.599849   2 C  px              106      1.599756   6 C  px        
   120     -1.052653   8 H  s               126     -1.052648  10 H  s         
    63      0.601163   4 C  s                65      0.586970   4 C  py        

 Vector   47  Occ=0.000000D+00  E= 6.381429D-01
              MO Center= -1.3D-04, -9.8D-01,  1.3D-03, r^2= 5.2D+00
   Bfn.  Coefficient  Atom+Function         Bfn.  Coefficient  Atom+Function  
  ----- ------------  ---------------      ----- ------------  ---------------
    12      3.396860   1 C  py              117      1.968195   7 H  s         
    67     -1.536177   4 C  s                29     -1.292835   2 C  s         
   105     -1.292432   6 C  s                69     -1.223821   4 C  py        
    30     -1.018301   2 C  px              106      1.018129   6 C  px        
   123      0.980950   9 H  s                 8     -0.865588   1 C  py        

 Vector   48  Occ=0.000000D+00  E= 6.447324D-01
              MO Center= -6.5D-05, -3.6D-01, -2.5D-04, r^2= 5.6D+00
   Bfn.  Coefficient  Atom+Function         Bfn.  Coefficient  Atom+Function  
  ----- ------------  ---------------      ----- ------------  ---------------
    29      3.286377   2 C  s               105     -3.286510   6 C  s         
    11      2.890426   1 C  px               31     -1.988840   2 C  py        
   107      1.988901   6 C  py              120     -1.061221   8 H  s         
   126      1.061194  10 H  s                25     -0.845981   2 C  s         
   101      0.845992   6 C  s                50     -0.612175   3 N  py        

 Vector   49  Occ=0.000000D+00  E= 6.841638D-01
              MO Center= -7.3D-05,  7.2D-01,  1.4D-04, r^2= 4.8D+00
   Bfn.  Coefficient  Atom+Function         Bfn.  Coefficient  Atom+Function  
  ----- ------------  ---------------      ----- ------------  ---------------
    12      1.218812   1 C  py               30     -0.961433   2 C  px        
   106      0.961331   6 C  px               50     -0.952260   3 N  py        
    88     -0.952012   5 N  py               49      0.897034   3 N  px        
    87     -0.897116   5 N  px               63     -0.657515   4 C  s         
    31     -0.588842   2 C  py              107     -0.589196   6 C  py        

 Vector   50  Occ=0.000000D+00  E= 6.898586D-01
              MO Center=  6.5D-06,  1.4D-01, -3.6D-05, r^2= 6.0D+00
   Bfn.  Coefficient  Atom+Function         Bfn.  Coefficient  Atom+Function  
  ----- ------------  ---------------      ----- ------------  ---------------
    30      1.642563   2 C  px              106     -1.642268   6 C  px        
    67     -1.556382   4 C  s                12     -1.408804   1 C  py        
    69     -1.414817   4 C  py              120      1.149118   8 H  s         
   123      1.153056   9 H  s               126      1.149089  10 H  s         
    31      0.990620   2 C  py              107      0.991068   6 C  py        

 Vector   51  Occ=0.000000D+00  E= 6.933871D-01
              MO Center=  1.8D-04, -1.1D-01,  1.8D-05, r^2= 4.3D+00
   Bfn.  Coefficient  Atom+Function         Bfn.  Coefficient  Atom+Function  
  ----- ------------  ---------------      ----- ------------  ---------------
    29      1.818223   2 C  s               105     -1.818258   6 C  s         
    11      1.313159   1 C  px               49      0.944717   3 N  px        
    87      0.944832   5 N  px                7     -0.571639   1 C  px        
    30      0.490829   2 C  px              106      0.490659   6 C  px        
    64      0.482639   4 C  px               25     -0.451696   2 C  s         

 Vector   52  Occ=0.000000D+00  E= 7.045815D-01
              MO Center=  1.2D-04,  7.3D-01, -1.8D-04, r^2= 3.8D+00
   Bfn.  Coefficient  Atom+Function         Bfn.  Coefficient  Atom+Function  
  ----- ------------  ---------------      ----- ------------  ---------------
    51      1.102849   3 N  pz               89     -1.102848   5 N  pz        
    47     -0.613790   3 N  pz               85      0.613790   5 N  pz        
    32     -0.491763   2 C  pz              108      0.491763   6 C  pz        
    43     -0.169487   3 N  pz               81      0.169488   5 N  pz        
    73      0.114832   4 C  dxz              28      0.076474   2 C  pz        

 Vector   53  Occ=0.000000D+00  E= 7.663164D-01
              MO Center= -1.2D-04, -6.3D-01,  2.5D-04, r^2= 4.6D+00
   Bfn.  Coefficient  Atom+Function         Bfn.  Coefficient  Atom+Function  
  ----- ------------  ---------------      ----- ------------  ---------------
    10      8.507319   1 C  s                29     -4.297126   2 C  s         
   105     -4.296923   6 C  s                69      1.657347   4 C  py        
    12      1.554019   1 C  py               30     -1.559804   2 C  px        
   106      1.560142   6 C  px                6     -1.434408   1 C  s         
    31      1.391542   2 C  py              107      1.390988   6 C  py        

 Vector   54  Occ=0.000000D+00  E= 7.819859D-01
              MO Center=  2.1D-05, -1.8D-01,  2.4D-04, r^2= 5.3D+00
   Bfn.  Coefficient  Atom+Function         Bfn.  Coefficient  Atom+Function  
  ----- ------------  ---------------      ----- ------------  ---------------
    29      4.556856   2 C  s               105     -4.556880   6 C  s         
    11      4.391113   1 C  px               31     -2.314283   2 C  py        
   107      2.314038   6 C  py               49     -0.889646   3 N  px        
    87     -0.889936   5 N  px               50      0.875001   3 N  py        
    88     -0.874745   5 N  py               30      0.809871   2 C  px        

 Vector   55  Occ=0.000000D+00  E= 7.925318D-01
              MO Center= -4.3D-05, -2.3D-01, -1.6D-02, r^2= 4.7D+00
   Bfn.  Coefficient  Atom+Function         Bfn.  Coefficient  Atom+Function  
  ----- ------------  ---------------      ----- ------------  ---------------
    12      3.585514   1 C  py               69      2.842154   4 C  py        
   116      1.555898   7 H  s                67     -1.317127   4 C  s         
   122     -1.069737   9 H  s                48      1.042791   3 N  s         
    86      1.042763   5 N  s               117      0.992960   7 H  s         
   123     -0.746871   9 H  s                25     -0.613437   2 C  s         

 Vector   56  Occ=0.000000D+00  E= 7.993324D-01
              MO Center=  1.1D-04,  6.9D-01,  1.4D-02, r^2= 4.4D+00
   Bfn.  Coefficient  Atom+Function         Bfn.  Coefficient  Atom+Function  
  ----- ------------  ---------------      ----- ------------  ---------------
    51      1.503892   3 N  pz               89      1.503887   5 N  pz        
    70     -1.057715   4 C  pz               32     -0.775731   2 C  pz        
   108     -0.775727   6 C  pz               13      0.683032   1 C  pz        
    47     -0.627616   3 N  pz               85     -0.627616   5 N  pz        
    43     -0.162771   3 N  pz               81     -0.162771   5 N  pz        

 Vector   57  Occ=0.000000D+00  E= 8.375684D-01
              MO Center=  2.6D-05, -5.0D-02,  6.6D-04, r^2= 5.5D+00
   Bfn.  Coefficient  Atom+Function         Bfn.  Coefficient  Atom+Function  
  ----- ------------  ---------------      ----- ------------  ---------------
    30      3.707478   2 C  px              106      3.707117   6 C  px        
    31      1.771383   2 C  py              107     -1.772548   6 C  py        
    29      1.489887   2 C  s               105     -1.490254   6 C  s         
   119      1.416393   8 H  s               125     -1.416414  10 H  s         
    68      1.308506   4 C  px              120      1.001917   8 H  s         

 Vector   58  Occ=0.000000D+00  E= 8.983027D-01
              MO Center=  1.9D-05,  5.9D-02, -1.1D-03, r^2= 5.4D+00
   Bfn.  Coefficient  Atom+Function         Bfn.  Coefficient  Atom+Function  
  ----- ------------  ---------------      ----- ------------  ---------------
    12      6.409209   1 C  py               29     -6.143496   2 C  s         
   105     -6.143657   6 C  s                67      5.809283   4 C  s         
    10      5.563502   1 C  s                31     -2.844510   2 C  py        
   107     -2.845224   6 C  py               30     -2.527215   2 C  px        
   106      2.526270   6 C  px               69     -2.148739   4 C  py        

 Vector   59  Occ=0.000000D+00  E= 1.002393D+00
              MO Center=  4.7D-06,  4.7D-01, -4.9D-04, r^2= 5.4D+00
   Bfn.  Coefficient  Atom+Function         Bfn.  Coefficient  Atom+Function  
  ----- ------------  ---------------      ----- ------------  ---------------
    68      3.647126   4 C  px               50      3.586088   3 N  py        
    88     -3.586550   5 N  py               31      3.129905   2 C  py        
   107     -3.129343   6 C  py               11     -2.861508   1 C  px        
    49      1.786998   3 N  px               87      1.785713   5 N  px        
    30     -1.678199   2 C  px              106     -1.678853   6 C  px        

 Vector   60  Occ=0.000000D+00  E= 1.028348D+00
              MO Center=  1.4D-04,  4.1D-01, -6.5D-04, r^2= 5.6D+00
   Bfn.  Coefficient  Atom+Function         Bfn.  Coefficient  Atom+Function  
  ----- ------------  ---------------      ----- ------------  ---------------
    10      9.166477   1 C  s                12      5.286600   1 C  py        
    30     -4.952713   2 C  px              106      4.952641   6 C  px        
    29     -4.204534   2 C  s               105     -4.204537   6 C  s         
    69     -3.986954   4 C  py               50      1.755388   3 N  py        
    88      1.756054   5 N  py              122      1.529344   9 H  s         

 Vector   61  Occ=0.000000D+00  E= 1.046331D+00
              MO Center= -7.9D-05, -5.7D-01,  7.2D-04, r^2= 2.3D+00
   Bfn.  Coefficient  Atom+Function         Bfn.  Coefficient  Atom+Function  
  ----- ------------  ---------------      ----- ------------  ---------------
    18      0.883458   1 C  dyz              35      0.702680   2 C  dxz       
   111     -0.702595   6 C  dxz              75     -0.572646   4 C  dyz       
    37      0.324182   2 C  dyz             113      0.324373   6 C  dyz       
    54      0.154621   3 N  dxz              92     -0.154650   5 N  dxz       
     9     -0.144268   1 C  pz               51     -0.120304   3 N  pz        

 Vector   62  Occ=0.000000D+00  E= 1.058050D+00
              MO Center= -7.1D-05, -4.3D-01, -1.6D-04, r^2= 2.3D+00
   Bfn.  Coefficient  Atom+Function         Bfn.  Coefficient  Atom+Function  
  ----- ------------  ---------------      ----- ------------  ---------------
    16      0.766959   1 C  dxz              37      0.574051   2 C  dyz       
   113     -0.573931   6 C  dyz              73      0.546579   4 C  dxz       
    35     -0.433371   2 C  dxz             111     -0.433519   6 C  dxz       
    56     -0.204058   3 N  dyz              94      0.204098   5 N  dyz       
    54     -0.116681   3 N  dxz              92     -0.116609   5 N  dxz       

 Vector   63  Occ=0.000000D+00  E= 1.116844D+00
              MO Center=  3.2D-04,  1.8D-01, -6.1D-04, r^2= 3.8D+00
   Bfn.  Coefficient  Atom+Function         Bfn.  Coefficient  Atom+Function  
  ----- ------------  ---------------      ----- ------------  ---------------
    10      6.364938   1 C  s                48      6.230471   3 N  s         
    86      6.232805   5 N  s                29     -5.216549   2 C  s         
   105     -5.217059   6 C  s                12      3.869891   1 C  py        
    67     -2.946968   4 C  s                30     -2.631813   2 C  px        
   106      2.632007   6 C  px               69      2.011494   4 C  py        

 Vector   64  Occ=0.000000D+00  E= 1.128294D+00
              MO Center= -1.9D-04,  7.6D-01,  9.6D-05, r^2= 4.0D+00
   Bfn.  Coefficient  Atom+Function         Bfn.  Coefficient  Atom+Function  
  ----- ------------  ---------------      ----- ------------  ---------------
    48      5.857314   3 N  s                86     -5.854636   5 N  s         
    68      2.542191   4 C  px               31     -1.903794   2 C  py        
   107      1.903548   6 C  py               30     -1.574602   2 C  px        
   106     -1.572955   6 C  px               49      1.531344   3 N  px        
    87      1.530643   5 N  px               44     -1.356075   3 N  s         

 Vector   65  Occ=0.000000D+00  E= 1.267185D+00
              MO Center=  1.5D-04, -1.9D-01, -3.3D-04, r^2= 2.5D+00
   Bfn.  Coefficient  Atom+Function         Bfn.  Coefficient  Atom+Function  
  ----- ------------  ---------------      ----- ------------  ---------------
    35      0.824602   2 C  dxz             111      0.824670   6 C  dxz       
    73      0.758085   4 C  dxz              37      0.467835   2 C  dyz       
   113     -0.468065   6 C  dyz              16     -0.394256   1 C  dxz       
    56     -0.240645   3 N  dyz              94      0.240506   5 N  dyz       
    28     -0.109163   2 C  pz              104      0.109244   6 C  pz        

 Vector   66  Occ=0.000000D+00  E= 1.270065D+00
              MO Center= -5.6D-05,  7.2D-01,  7.1D-05, r^2= 2.0D+00
   Bfn.  Coefficient  Atom+Function         Bfn.  Coefficient  Atom+Function  
  ----- ------------  ---------------      ----- ------------  ---------------
    75      1.447720   4 C  dyz              18      0.670594   1 C  dyz       
    70     -0.339587   4 C  pz               54     -0.244159   3 N  dxz       
    92      0.244151   5 N  dxz              51      0.191170   3 N  pz        
    89      0.191092   5 N  pz               35      0.183999   2 C  dxz       
   111     -0.183025   6 C  dxz              13      0.151902   1 C  pz        

 Vector   67  Occ=0.000000D+00  E= 1.295148D+00
              MO Center= -2.4D-06, -1.6D-01, -5.9D-04, r^2= 4.0D+00
   Bfn.  Coefficient  Atom+Function         Bfn.  Coefficient  Atom+Function  
  ----- ------------  ---------------      ----- ------------  ---------------
    48     -3.199585   3 N  s                86     -3.199776   5 N  s         
    29      3.009885   2 C  s               105      3.009988   6 C  s         
    12     -2.088312   1 C  py               67      1.860993   4 C  s         
    10     -1.655431   1 C  s               116     -0.986688   7 H  s         
    31      0.953793   2 C  py              107      0.953988   6 C  py        

 Vector   68  Occ=0.000000D+00  E= 1.342008D+00
              MO Center= -6.7D-05, -3.0D-01,  7.8D-04, r^2= 2.6D+00
   Bfn.  Coefficient  Atom+Function         Bfn.  Coefficient  Atom+Function  
  ----- ------------  ---------------      ----- ------------  ---------------
    37      1.047913   2 C  dyz             113      1.047866   6 C  dyz       
    18     -0.378132   1 C  dyz              75      0.354435   4 C  dyz       
    56     -0.345434   3 N  dyz              94     -0.345438   5 N  dyz       
    51     -0.224350   3 N  pz               89     -0.224344   5 N  pz        
     9      0.123218   1 C  pz               70      0.119533   4 C  pz        

 Vector   69  Occ=0.000000D+00  E= 1.375787D+00
              MO Center=  9.8D-05,  4.2D-01, -2.2D-05, r^2= 2.5D+00
   Bfn.  Coefficient  Atom+Function         Bfn.  Coefficient  Atom+Function  
  ----- ------------  ---------------      ----- ------------  ---------------
    73      1.124899   4 C  dxz              37     -0.569437   2 C  dyz       
   113      0.569609   6 C  dyz              16     -0.513114   1 C  dxz       
    54     -0.420528   3 N  dxz              92     -0.420547   5 N  dxz       
    35     -0.398489   2 C  dxz             111     -0.398302   6 C  dxz       
    51      0.284521   3 N  pz               89     -0.284540   5 N  pz        

 Vector   70  Occ=0.000000D+00  E= 1.500944D+00
              MO Center=  1.0D-04,  4.3D-01,  4.1D-04, r^2= 3.7D+00
   Bfn.  Coefficient  Atom+Function         Bfn.  Coefficient  Atom+Function  
  ----- ------------  ---------------      ----- ------------  ---------------
   122      1.410287   9 H  s               116     -1.019744   7 H  s         
    67     -0.870995   4 C  s                12     -0.828589   1 C  py        
    74     -0.805676   4 C  dyy              29      0.783279   2 C  s         
   105      0.783439   6 C  s                17      0.540244   1 C  dyy       
    69     -0.523943   4 C  py               76      0.488841   4 C  dzz       

 Vector   71  Occ=0.000000D+00  E= 1.528503D+00
              MO Center= -1.2D-04, -6.8D-01, -1.5D-04, r^2= 3.4D+00
   Bfn.  Coefficient  Atom+Function         Bfn.  Coefficient  Atom+Function  
  ----- ------------  ---------------      ----- ------------  ---------------
   119     -1.240735   8 H  s               125      1.240720  10 H  s         
    29      1.156573   2 C  s               105     -1.156491   6 C  s         
    33      0.585155   2 C  dxx             109     -0.585001   6 C  dxx       
    31     -0.493527   2 C  py              107      0.493620   6 C  py        
    15     -0.468006   1 C  dxy              34      0.454718   2 C  dxy       

 Vector   72  Occ=0.000000D+00  E= 1.558168D+00
              MO Center= -7.2D-05, -3.7D-01,  5.0D-06, r^2= 2.8D+00
   Bfn.  Coefficient  Atom+Function         Bfn.  Coefficient  Atom+Function  
  ----- ------------  ---------------      ----- ------------  ---------------
    10      2.202176   1 C  s                12      1.802315   1 C  py        
    29     -1.284202   2 C  s               105     -1.284126   6 C  s         
    48      1.253307   3 N  s                86      1.253246   5 N  s         
    67     -0.728465   4 C  s                 6     -0.658196   1 C  s         
    19     -0.610581   1 C  dzz              34     -0.507940   2 C  dxy       

 Vector   73  Occ=0.000000D+00  E= 1.570065D+00
              MO Center= -7.8D-05, -5.9D-01,  1.8D-04, r^2= 2.9D+00
   Bfn.  Coefficient  Atom+Function         Bfn.  Coefficient  Atom+Function  
  ----- ------------  ---------------      ----- ------------  ---------------
    11      1.550930   1 C  px               15      0.976829   1 C  dxy       
    68     -0.976459   4 C  px               50     -0.930024   3 N  py        
    88      0.930147   5 N  py               34      0.830160   2 C  dxy       
   110      0.829942   6 C  dxy              29      0.558852   2 C  s         
   105     -0.558936   6 C  s                31     -0.547566   2 C  py        

 Vector   74  Occ=0.000000D+00  E= 1.716262D+00
              MO Center= -5.5D-05, -4.7D-01,  5.2D-04, r^2= 4.0D+00
   Bfn.  Coefficient  Atom+Function         Bfn.  Coefficient  Atom+Function  
  ----- ------------  ---------------      ----- ------------  ---------------
   116      1.364958   7 H  s                10     -0.967604   1 C  s         
    69      0.798281   4 C  py               67     -0.778551   4 C  s         
    34      0.739187   2 C  dxy             110     -0.738973   6 C  dxy       
    12      0.651158   1 C  py              119     -0.617987   8 H  s         
   125     -0.617980  10 H  s                17     -0.516591   1 C  dyy       

 Vector   75  Occ=0.000000D+00  E= 1.762236D+00
              MO Center=  1.2D-04,  7.2D-01, -9.0D-05, r^2= 2.6D+00
   Bfn.  Coefficient  Atom+Function         Bfn.  Coefficient  Atom+Function  
  ----- ------------  ---------------      ----- ------------  ---------------
    72      1.578088   4 C  dxy              30     -1.158362   2 C  px        
   106     -1.158501   6 C  px               29     -0.734510   2 C  s         
   105      0.734484   6 C  s                49      0.693545   3 N  px        
    50      0.694685   3 N  py               87      0.693320   5 N  px        
    88     -0.694910   5 N  py               11     -0.648140   1 C  px        

 Vector   76  Occ=0.000000D+00  E= 1.827574D+00
              MO Center= -1.3D-04, -8.4D-01,  1.5D-04, r^2= 2.2D+00
   Bfn.  Coefficient  Atom+Function         Bfn.  Coefficient  Atom+Function  
  ----- ------------  ---------------      ----- ------------  ---------------
    18      1.469082   1 C  dyz              35     -1.105681   2 C  dxz       
   111      1.105754   6 C  dxz              13      0.675606   1 C  pz        
    32     -0.427872   2 C  pz              108     -0.427870   6 C  pz        
    75     -0.393775   4 C  dyz              37      0.231208   2 C  dyz       
   113      0.230853   6 C  dyz               5      0.201924   1 C  pz        

 Vector   77  Occ=0.000000D+00  E= 1.860546D+00
              MO Center=  7.1D-05,  4.1D-01,  2.3D-04, r^2= 2.8D+00
   Bfn.  Coefficient  Atom+Function         Bfn.  Coefficient  Atom+Function  
  ----- ------------  ---------------      ----- ------------  ---------------
    67      1.878499   4 C  s                69     -1.313811   4 C  py        
    76     -0.921260   4 C  dzz              71      0.765018   4 C  dxx       
    19      0.699864   1 C  dzz              29     -0.667305   2 C  s         
   105     -0.667324   6 C  s                30     -0.613431   2 C  px        
   106      0.613236   6 C  px               31     -0.579701   2 C  py        

 Vector   78  Occ=0.000000D+00  E= 1.888778D+00
              MO Center= -4.1D-05, -3.0D-01,  4.1D-04, r^2= 2.8D+00
   Bfn.  Coefficient  Atom+Function         Bfn.  Coefficient  Atom+Function  
  ----- ------------  ---------------      ----- ------------  ---------------
    29      2.019023   2 C  s               105     -2.019087   6 C  s         
    30      0.959363   2 C  px              106      0.959173   6 C  px        
    38     -0.772235   2 C  dzz             114      0.772235   6 C  dzz       
    72      0.724857   4 C  dxy              31      0.689465   2 C  py        
   107     -0.689800   6 C  py               34     -0.643761   2 C  dxy       

 Vector   79  Occ=0.000000D+00  E= 1.951901D+00
              MO Center= -1.0D-04, -6.7D-01, -2.2D-04, r^2= 2.4D+00
   Bfn.  Coefficient  Atom+Function         Bfn.  Coefficient  Atom+Function  
  ----- ------------  ---------------      ----- ------------  ---------------
    16      1.642504   1 C  dxz              35      0.843740   2 C  dxz       
   111      0.843913   6 C  dxz              37     -0.509422   2 C  dyz       
   113      0.509156   6 C  dyz              73      0.445976   4 C  dxz       
    56      0.415790   3 N  dyz              94     -0.415762   5 N  dyz       
    32      0.237908   2 C  pz              108     -0.237909   6 C  pz        

 Vector   80  Occ=0.000000D+00  E= 1.957303D+00
              MO Center= -1.3D-04, -8.9D-01,  2.1D-04, r^2= 3.1D+00
   Bfn.  Coefficient  Atom+Function         Bfn.  Coefficient  Atom+Function  
  ----- ------------  ---------------      ----- ------------  ---------------
    10      2.312288   1 C  s               116     -1.100652   7 H  s         
    29     -1.072424   2 C  s               105     -1.072396   6 C  s         
    31      0.931752   2 C  py              107      0.931610   6 C  py        
   119      0.817959   8 H  s               125      0.817971  10 H  s         
    33     -0.754208   2 C  dxx             109     -0.754363   6 C  dxx       

 Vector   81  Occ=0.000000D+00  E= 2.134934D+00
              MO Center=  6.6D-05,  4.4D-01,  5.5D-05, r^2= 4.7D+00
   Bfn.  Coefficient  Atom+Function         Bfn.  Coefficient  Atom+Function  
  ----- ------------  ---------------      ----- ------------  ---------------
   122      1.360898   9 H  s                12     -0.803979   1 C  py        
   121     -0.719883   9 H  s               119      0.698052   8 H  s         
   125      0.698041  10 H  s                69     -0.610972   4 C  py        
   118     -0.427547   8 H  s               124     -0.427537  10 H  s         
    67      0.413938   4 C  s               117     -0.411959   7 H  s         

 Vector   82  Occ=0.000000D+00  E= 2.220804D+00
              MO Center= -1.1D-05, -3.1D-01, -1.2D-04, r^2= 3.9D+00
   Bfn.  Coefficient  Atom+Function         Bfn.  Coefficient  Atom+Function  
  ----- ------------  ---------------      ----- ------------  ---------------
    11      1.341702   1 C  px              119     -1.156363   8 H  s         
   125      1.156403  10 H  s                31     -0.770346   2 C  py        
   107      0.770431   6 C  py               15      0.700395   1 C  dxy       
    29      0.631964   2 C  s               105     -0.631744   6 C  s         
   118      0.547486   8 H  s               124     -0.547507  10 H  s         

 Vector   83  Occ=0.000000D+00  E= 2.237195D+00
              MO Center= -1.2D-04, -7.3D-01,  1.8D-04, r^2= 2.8D+00
   Bfn.  Coefficient  Atom+Function         Bfn.  Coefficient  Atom+Function  
  ----- ------------  ---------------      ----- ------------  ---------------
    15      2.046270   1 C  dxy              11      1.952282   1 C  px        
    29      1.511764   2 C  s               105     -1.511471   6 C  s         
    30      0.933924   2 C  px              106      0.934030   6 C  px        
    31     -0.838586   2 C  py              107      0.838361   6 C  py        
    34     -0.770390   2 C  dxy             110     -0.769721   6 C  dxy       

 Vector   84  Occ=0.000000D+00  E= 2.254316D+00
              MO Center=  1.3D-04,  7.7D-01, -1.2D-04, r^2= 2.1D+00
   Bfn.  Coefficient  Atom+Function         Bfn.  Coefficient  Atom+Function  
  ----- ------------  ---------------      ----- ------------  ---------------
    54      0.934490   3 N  dxz              92     -0.934349   5 N  dxz       
    75      0.620267   4 C  dyz              62     -0.597297   4 C  pz        
    56      0.506223   3 N  dyz              94      0.506509   5 N  dyz       
    70     -0.501037   4 C  pz               66      0.437280   4 C  pz        
    37      0.314910   2 C  dyz             113      0.314813   6 C  dyz       

 Vector   85  Occ=0.000000D+00  E= 2.288105D+00
              MO Center= -1.3D-04, -7.4D-01,  3.0D-04, r^2= 3.2D+00
   Bfn.  Coefficient  Atom+Function         Bfn.  Coefficient  Atom+Function  
  ----- ------------  ---------------      ----- ------------  ---------------
    10      6.414868   1 C  s                29     -4.745018   2 C  s         
   105     -4.745153   6 C  s                12      3.804287   1 C  py        
    30     -2.381397   2 C  px              106      2.381166   6 C  px        
    67      1.619482   4 C  s                69     -1.274249   4 C  py        
   116      1.003511   7 H  s                31     -0.961520   2 C  py        

 Vector   86  Occ=0.000000D+00  E= 2.295087D+00
              MO Center=  1.3D-04,  4.2D-01, -1.5D-04, r^2= 2.6D+00
   Bfn.  Coefficient  Atom+Function         Bfn.  Coefficient  Atom+Function  
  ----- ------------  ---------------      ----- ------------  ---------------
    54      0.974121   3 N  dxz              92      0.974335   5 N  dxz       
    73      0.805862   4 C  dxz              37     -0.768186   2 C  dyz       
   113      0.768242   6 C  dyz              56     -0.639454   3 N  dyz       
    94      0.639215   5 N  dyz              16      0.449999   1 C  dxz       
    51      0.366009   3 N  pz               89     -0.366030   5 N  pz        

 Vector   87  Occ=0.000000D+00  E= 2.316747D+00
              MO Center= -1.1D-04, -7.7D-01,  9.2D-04, r^2= 4.3D+00
   Bfn.  Coefficient  Atom+Function         Bfn.  Coefficient  Atom+Function  
  ----- ------------  ---------------      ----- ------------  ---------------
   116      1.395817   7 H  s               115     -0.887922   7 H  s         
   122     -0.882635   9 H  s                10      0.618726   1 C  s         
     8      0.603337   1 C  py               12      0.594137   1 C  py        
   119      0.532468   8 H  s               125      0.532452  10 H  s         
   121      0.519312   9 H  s                 4     -0.508138   1 C  py        

 Vector   88  Occ=0.000000D+00  E= 2.351293D+00
              MO Center= -2.2D-05,  1.3D-01, -3.1D-04, r^2= 2.7D+00
   Bfn.  Coefficient  Atom+Function         Bfn.  Coefficient  Atom+Function  
  ----- ------------  ---------------      ----- ------------  ---------------
    56      0.932570   3 N  dyz              94      0.932384   5 N  dyz       
    37      0.635682   2 C  dyz             113      0.635661   6 C  dyz       
    54     -0.469466   3 N  dxz              92      0.469703   5 N  dxz       
    24      0.444210   2 C  pz              100      0.444204   6 C  pz        
    75     -0.404196   4 C  dyz              51     -0.386526   3 N  pz        

 Vector   89  Occ=0.000000D+00  E= 2.575450D+00
              MO Center= -2.6D-04,  9.0D-01, -2.1D-04, r^2= 2.6D+00
   Bfn.  Coefficient  Atom+Function         Bfn.  Coefficient  Atom+Function  
  ----- ------------  ---------------      ----- ------------  ---------------
    48      1.982551   3 N  s                86      1.981642   5 N  s         
    67     -1.947384   4 C  s                29     -1.132961   2 C  s         
   105     -1.132137   6 C  s                63     -0.890492   4 C  s         
   122     -0.855035   9 H  s                76      0.833089   4 C  dzz       
    69      0.710418   4 C  py               25     -0.635670   2 C  s         

 Vector   90  Occ=0.000000D+00  E= 2.577538D+00
              MO Center=  4.3D-04,  1.1D-01, -2.1D-04, r^2= 3.5D+00
   Bfn.  Coefficient  Atom+Function         Bfn.  Coefficient  Atom+Function  
  ----- ------------  ---------------      ----- ------------  ---------------
    48     -2.032319   3 N  s                86      2.033167   5 N  s         
    29      1.867892   2 C  s               105     -1.868398   6 C  s         
    30      0.964398   2 C  px              106      0.964304   6 C  px        
    49     -0.827882   3 N  px               87     -0.828239   5 N  px        
   119      0.799292   8 H  s               125     -0.799371  10 H  s         

 Vector   91  Occ=0.000000D+00  E= 2.659098D+00
              MO Center= -8.9D-05, -5.8D-01, -2.0D-04, r^2= 2.3D+00
   Bfn.  Coefficient  Atom+Function         Bfn.  Coefficient  Atom+Function  
  ----- ------------  ---------------      ----- ------------  ---------------
     9      1.010998   1 C  pz                5     -0.885066   1 C  pz        
    56      0.593053   3 N  dyz              94      0.592969   5 N  dyz       
    28      0.539115   2 C  pz              104      0.539119   6 C  pz        
    37      0.498920   2 C  dyz             113      0.498874   6 C  dyz       
    24     -0.481343   2 C  pz              100     -0.481346   6 C  pz        

 Vector   92  Occ=0.000000D+00  E= 2.668516D+00
              MO Center= -1.1D-05, -1.1D-01, -6.6D-05, r^2= 2.7D+00
   Bfn.  Coefficient  Atom+Function         Bfn.  Coefficient  Atom+Function  
  ----- ------------  ---------------      ----- ------------  ---------------
    73     -0.903228   4 C  dxz              16      0.865643   1 C  dxz       
    28      0.715107   2 C  pz              104     -0.715113   6 C  pz        
    54     -0.707026   3 N  dxz              92     -0.706841   5 N  dxz       
    24     -0.605227   2 C  pz              100      0.605231   6 C  pz        
    56     -0.576698   3 N  dyz              94      0.576917   5 N  dyz       

 Vector   93  Occ=0.000000D+00  E= 2.761581D+00
              MO Center=  8.6D-05,  2.9D-01,  6.4D-05, r^2= 3.0D+00
   Bfn.  Coefficient  Atom+Function         Bfn.  Coefficient  Atom+Function  
  ----- ------------  ---------------      ----- ------------  ---------------
    67      1.663074   4 C  s                10     -1.027995   1 C  s         
    50     -0.974762   3 N  py               88     -0.975090   5 N  py        
    49     -0.825751   3 N  px               87      0.825460   5 N  px        
    53     -0.818433   3 N  dxy              91      0.819009   5 N  dxy       
    31     -0.762962   2 C  py              107     -0.762865   6 C  py        

 Vector   94  Occ=0.000000D+00  E= 2.792544D+00
              MO Center=  1.5D-04,  1.0D+00, -1.7D-04, r^2= 1.5D+00
   Bfn.  Coefficient  Atom+Function         Bfn.  Coefficient  Atom+Function  
  ----- ------------  ---------------      ----- ------------  ---------------
    66      1.427911   4 C  pz               62     -1.123238   4 C  pz        
    54     -0.689170   3 N  dxz              92      0.689040   5 N  dxz       
    70     -0.469274   4 C  pz               56     -0.355855   3 N  dyz       
    94     -0.356045   5 N  dyz              75     -0.309165   4 C  dyz       
    28     -0.225126   2 C  pz              104     -0.225094   6 C  pz        

 Vector   95  Occ=0.000000D+00  E= 2.799650D+00
              MO Center=  2.5D-05,  9.1D-02,  3.6D-04, r^2= 2.6D+00
   Bfn.  Coefficient  Atom+Function         Bfn.  Coefficient  Atom+Function  
  ----- ------------  ---------------      ----- ------------  ---------------
    56      0.970078   3 N  dyz              94     -0.970213   5 N  dyz       
    28      0.847124   2 C  pz              104     -0.847116   6 C  pz        
    73      0.753311   4 C  dxz              24     -0.665157   2 C  pz        
   100      0.665151   6 C  pz               37      0.440845   2 C  dyz       
   113     -0.440819   6 C  dyz              54      0.404677   3 N  dxz       

 Vector   96  Occ=0.000000D+00  E= 2.821371D+00
              MO Center=  2.3D-05,  2.2D-01, -6.7D-04, r^2= 2.7D+00
   Bfn.  Coefficient  Atom+Function         Bfn.  Coefficient  Atom+Function  
  ----- ------------  ---------------      ----- ------------  ---------------
    53      0.903559   3 N  dxy              91      0.903121   5 N  dxy       
    34      0.676970   2 C  dxy             110      0.677224   6 C  dxy       
    72      0.502938   4 C  dxy              48      0.475227   3 N  s         
    86     -0.475299   5 N  s                55      0.422788   3 N  dyy       
    93     -0.423052   5 N  dyy              15      0.375950   1 C  dxy       

 Vector   97  Occ=0.000000D+00  E= 2.870873D+00
              MO Center=  5.3D-05,  5.7D-01, -1.8D-04, r^2= 2.6D+00
   Bfn.  Coefficient  Atom+Function         Bfn.  Coefficient  Atom+Function  
  ----- ------------  ---------------      ----- ------------  ---------------
    68      1.214151   4 C  px               50      1.056800   3 N  py        
    88     -1.056856   5 N  py               31      1.027503   2 C  py        
   107     -1.027391   6 C  py               53      0.790061   3 N  dxy       
    91      0.790547   5 N  dxy              11     -0.725162   1 C  px        
    60      0.665512   4 C  px               55     -0.431072   3 N  dyy       

 Vector   98  Occ=0.000000D+00  E= 2.889677D+00
              MO Center=  4.4D-05,  2.0D-01,  2.4D-04, r^2= 3.3D+00
   Bfn.  Coefficient  Atom+Function         Bfn.  Coefficient  Atom+Function  
  ----- ------------  ---------------      ----- ------------  ---------------
    10      2.273848   1 C  s                29     -1.782247   2 C  s         
   105     -1.782242   6 C  s                12      1.285090   1 C  py        
    67      1.146633   4 C  s                69     -0.979330   4 C  py        
    74      0.832315   4 C  dyy             122      0.806436   9 H  s         
    30     -0.769741   2 C  px              106      0.769536   6 C  px        

 Vector   99  Occ=0.000000D+00  E= 2.920622D+00
              MO Center= -1.2D-04, -8.2D-01, -2.2D-04, r^2= 1.8D+00
   Bfn.  Coefficient  Atom+Function         Bfn.  Coefficient  Atom+Function  
  ----- ------------  ---------------      ----- ------------  ---------------
     9      1.251672   1 C  pz                5     -0.918639   1 C  pz        
    28     -0.870214   2 C  pz              104     -0.870223   6 C  pz        
    24      0.632286   2 C  pz              100      0.632293   6 C  pz        
    13     -0.580560   1 C  pz               18      0.448777   1 C  dyz       
    35     -0.408366   2 C  dxz             111      0.408364   6 C  dxz       

 Vector  100  Occ=0.000000D+00  E= 2.977516D+00
              MO Center= -9.9D-05, -5.8D-01,  7.2D-04, r^2= 2.8D+00
   Bfn.  Coefficient  Atom+Function         Bfn.  Coefficient  Atom+Function  
  ----- ------------  ---------------      ----- ------------  ---------------
    10      1.801549   1 C  s                67     -1.375231   4 C  s         
     6      1.329348   1 C  s                17     -1.057834   1 C  dyy       
    14     -0.984982   1 C  dxx              19     -0.980585   1 C  dzz       
    25      0.891850   2 C  s               101      0.891833   6 C  s         
    63     -0.876270   4 C  s                71      0.712987   4 C  dxx       

 Vector  101  Occ=0.000000D+00  E= 3.024378D+00
              MO Center= -8.1D-05, -7.8D-01, -5.9D-05, r^2= 2.4D+00
   Bfn.  Coefficient  Atom+Function         Bfn.  Coefficient  Atom+Function  
  ----- ------------  ---------------      ----- ------------  ---------------
    29      1.614738   2 C  s               105     -1.614871   6 C  s         
    25      1.309501   2 C  s               101     -1.309533   6 C  s         
    36     -1.157249   2 C  dyy             112      1.157273   6 C  dyy       
    33     -1.110218   2 C  dxx             109      1.110257   6 C  dxx       
    38     -0.894309   2 C  dzz             114      0.894337   6 C  dzz       

 Vector  102  Occ=0.000000D+00  E= 3.096324D+00
              MO Center=  1.3D-04,  7.5D-01,  9.5D-05, r^2= 3.2D+00
   Bfn.  Coefficient  Atom+Function         Bfn.  Coefficient  Atom+Function  
  ----- ------------  ---------------      ----- ------------  ---------------
    10      3.945736   1 C  s                29     -2.140539   2 C  s         
   105     -2.140523   6 C  s                48      1.374847   3 N  s         
    86      1.374833   5 N  s                74     -1.332787   4 C  dyy       
    12      1.285936   1 C  py               63      1.206997   4 C  s         
    71     -1.176542   4 C  dxx              69      1.075019   4 C  py        

 Vector  103  Occ=0.000000D+00  E= 3.159380D+00
              MO Center= -8.6D-05, -7.2D-01,  3.4D-04, r^2= 3.6D+00
   Bfn.  Coefficient  Atom+Function         Bfn.  Coefficient  Atom+Function  
  ----- ------------  ---------------      ----- ------------  ---------------
    12      1.292281   1 C  py               48      1.024818   3 N  s         
    86      1.024830   5 N  s                30     -1.017602   2 C  px        
   106      1.017417   6 C  px                6     -0.822269   1 C  s         
    31     -0.817297   2 C  py              107     -0.817633   6 C  py        
    17      0.801065   1 C  dyy              33     -0.790574   2 C  dxx       

 Vector  104  Occ=0.000000D+00  E= 3.226051D+00
              MO Center= -1.7D-04, -7.9D-01,  2.0D-04, r^2= 2.6D+00
   Bfn.  Coefficient  Atom+Function         Bfn.  Coefficient  Atom+Function  
  ----- ------------  ---------------      ----- ------------  ---------------
    11      1.561698   1 C  px               31     -1.529916   2 C  py        
   107      1.530198   6 C  py               30     -1.047286   2 C  px        
   106     -1.046803   6 C  px               48      0.965859   3 N  s         
    86     -0.965820   5 N  s                 7     -0.935651   1 C  px        
    50     -0.910707   3 N  py               88      0.910702   5 N  py        

 Vector  105  Occ=0.000000D+00  E= 3.269077D+00
              MO Center= -1.8D-04, -1.2D+00,  4.4D-04, r^2= 1.6D+00
   Bfn.  Coefficient  Atom+Function         Bfn.  Coefficient  Atom+Function  
  ----- ------------  ---------------      ----- ------------  ---------------
    12      2.566643   1 C  py              116      1.176084   7 H  s         
    29     -1.124577   2 C  s               105     -1.124672   6 C  s         
     8     -1.104019   1 C  py                4      0.966291   1 C  py        
   115     -0.804526   7 H  s                31     -0.636489   2 C  py        
   107     -0.636503   6 C  py               26     -0.613177   2 C  px        

 Vector  106  Occ=0.000000D+00  E= 3.354009D+00
              MO Center=  4.8D-05,  2.0D-01, -3.0D-05, r^2= 3.1D+00
   Bfn.  Coefficient  Atom+Function         Bfn.  Coefficient  Atom+Function  
  ----- ------------  ---------------      ----- ------------  ---------------
    10      3.023175   1 C  s                12      2.156872   1 C  py        
    29     -2.102486   2 C  s               105     -2.102455   6 C  s         
    30     -1.457392   2 C  px              106      1.457380   6 C  px        
    65      1.158531   4 C  py               48      1.137176   3 N  s         
    86      1.137120   5 N  s               116      0.860647   7 H  s         

 Vector  107  Occ=0.000000D+00  E= 3.420627D+00
              MO Center= -1.0D-06, -8.2D-02, -1.3D-04, r^2= 2.9D+00
   Bfn.  Coefficient  Atom+Function         Bfn.  Coefficient  Atom+Function  
  ----- ------------  ---------------      ----- ------------  ---------------
    50      1.355703   3 N  py               88     -1.355800   5 N  py        
    27      1.328758   2 C  py              103     -1.328964   6 C  py        
    36      0.989768   2 C  dyy             112     -0.989651   6 C  dyy       
    68      0.953291   4 C  px               29      0.856578   2 C  s         
   105     -0.856711   6 C  s                30     -0.835991   2 C  px        

 Vector  108  Occ=0.000000D+00  E= 3.486674D+00
              MO Center=  8.1D-05,  4.8D-01, -1.8D-04, r^2= 2.7D+00
   Bfn.  Coefficient  Atom+Function         Bfn.  Coefficient  Atom+Function  
  ----- ------------  ---------------      ----- ------------  ---------------
    10      3.238837   1 C  s                69     -2.302625   4 C  py        
    30     -1.839674   2 C  px              106      1.839495   6 C  px        
    12      1.634309   1 C  py               29     -1.585556   2 C  s         
   105     -1.585568   6 C  s                27      1.203670   2 C  py        
   103      1.203700   6 C  py               65      1.165431   4 C  py        

 Vector  109  Occ=0.000000D+00  E= 3.536327D+00
              MO Center=  1.4D-04,  8.7D-01, -2.2D-04, r^2= 1.8D+00
   Bfn.  Coefficient  Atom+Function         Bfn.  Coefficient  Atom+Function  
  ----- ------------  ---------------      ----- ------------  ---------------
    64      2.483545   4 C  px               48      1.551833   3 N  s         
    86     -1.551771   5 N  s                49      1.407548   3 N  px        
    87      1.407327   5 N  px               30     -1.365530   2 C  px        
   106     -1.365616   6 C  px               72     -1.305035   4 C  dxy       
    60     -1.086751   4 C  px               68      0.781195   4 C  px        

 Vector  110  Occ=0.000000D+00  E= 3.643916D+00
              MO Center=  7.0D-05,  3.7D-01, -1.1D-04, r^2= 2.7D+00
   Bfn.  Coefficient  Atom+Function         Bfn.  Coefficient  Atom+Function  
  ----- ------------  ---------------      ----- ------------  ---------------
    48      2.737988   3 N  s                86      2.738035   5 N  s         
    67     -1.706945   4 C  s                71     -1.529547   4 C  dxx       
    10      1.353042   1 C  s                29     -1.312448   2 C  s         
   105     -1.312465   6 C  s                36     -1.047808   2 C  dyy       
   112     -1.047566   6 C  dyy              49      0.891734   3 N  px        

 Vector  111  Occ=0.000000D+00  E= 3.823732D+00
              MO Center=  1.4D-04,  7.2D-01, -3.0D-04, r^2= 2.0D+00
   Bfn.  Coefficient  Atom+Function         Bfn.  Coefficient  Atom+Function  
  ----- ------------  ---------------      ----- ------------  ---------------
    47      1.092825   3 N  pz               85     -1.092844   5 N  pz        
    43     -0.913789   3 N  pz               81      0.913805   5 N  pz        
    51     -0.452652   3 N  pz               89      0.452664   5 N  pz        
    73      0.382669   4 C  dxz              37     -0.195793   2 C  dyz       
   113      0.195787   6 C  dyz              32      0.150588   2 C  pz        

 Vector  112  Occ=0.000000D+00  E= 3.872892D+00
              MO Center=  9.1D-05,  6.7D-01, -1.8D-04, r^2= 2.1D+00
   Bfn.  Coefficient  Atom+Function         Bfn.  Coefficient  Atom+Function  
  ----- ------------  ---------------      ----- ------------  ---------------
    47      1.116924   3 N  pz               85      1.116904   5 N  pz        
    43     -0.911987   3 N  pz               81     -0.911970   5 N  pz        
    51     -0.640565   3 N  pz               89     -0.640557   5 N  pz        
    70      0.402033   4 C  pz               66     -0.293654   4 C  pz        
    32      0.280513   2 C  pz              108      0.280510   6 C  pz        

 Vector  113  Occ=0.000000D+00  E= 4.125198D+00
              MO Center= -6.2D-05, -8.6D-01,  2.5D-04, r^2= 1.7D+00
   Bfn.  Coefficient  Atom+Function         Bfn.  Coefficient  Atom+Function  
  ----- ------------  ---------------      ----- ------------  ---------------
     8      2.568467   1 C  py               14      2.410821   1 C  dxx       
    26     -1.911709   2 C  px              102      1.912084   6 C  px        
    12     -1.527303   1 C  py               27      1.361962   2 C  py        
   103      1.361457   6 C  py               34      1.317516   2 C  dxy       
   110     -1.316933   6 C  dxy              33     -1.290470   2 C  dxx       

 Vector  114  Occ=0.000000D+00  E= 4.140885D+00
              MO Center=  9.6D-05,  7.9D-01, -3.1D-04, r^2= 2.6D+00
   Bfn.  Coefficient  Atom+Function         Bfn.  Coefficient  Atom+Function  
  ----- ------------  ---------------      ----- ------------  ---------------
    48      2.901058   3 N  s                86     -2.900677   5 N  s         
    68      1.158266   4 C  px                7     -0.950163   1 C  px        
    64      0.936360   4 C  px               72     -0.826916   4 C  dxy       
    57     -0.822223   3 N  dzz              95      0.822175   5 N  dzz       
    45      0.800463   3 N  px               83      0.800586   5 N  px        

 Vector  115  Occ=0.000000D+00  E= 4.249282D+00
              MO Center= -9.2D-05, -7.7D-01,  2.3D-04, r^2= 2.0D+00
   Bfn.  Coefficient  Atom+Function         Bfn.  Coefficient  Atom+Function  
  ----- ------------  ---------------      ----- ------------  ---------------
     7      4.000278   1 C  px               15      2.951946   1 C  dxy       
    26      1.976599   2 C  px              102      1.976814   6 C  px        
    34     -1.778019   2 C  dxy             110     -1.777526   6 C  dxy       
    27     -1.317426   2 C  py              103      1.316818   6 C  py        
    33      1.102265   2 C  dxx             109     -1.102700   6 C  dxx       

 Vector  116  Occ=0.000000D+00  E= 4.301020D+00
              MO Center=  3.3D-05,  5.5D-01, -4.4D-04, r^2= 2.5D+00
   Bfn.  Coefficient  Atom+Function         Bfn.  Coefficient  Atom+Function  
  ----- ------------  ---------------      ----- ------------  ---------------
    48      3.655778   3 N  s                86      3.655588   5 N  s         
    29     -2.377001   2 C  s               105     -2.376956   6 C  s         
    10      1.992059   1 C  s                12      1.742818   1 C  py        
    67     -1.557675   4 C  s                45      0.908919   3 N  px        
    83     -0.908997   5 N  px               65      0.877656   4 C  py        

 Vector  117  Occ=0.000000D+00  E= 4.919057D+00
              MO Center=  1.6D-04,  1.0D+00, -1.8D-04, r^2= 1.3D+00
   Bfn.  Coefficient  Atom+Function         Bfn.  Coefficient  Atom+Function  
  ----- ------------  ---------------      ----- ------------  ---------------
    71      1.676942   4 C  dxx              45     -1.296253   3 N  px        
    83      1.295926   5 N  px               52     -1.097293   3 N  dxx       
    90     -1.097070   5 N  dxx              65     -1.040276   4 C  py        
    46     -1.000076   3 N  py               84     -1.000474   5 N  py        
    44      0.801427   3 N  s                82      0.801434   5 N  s         

 Vector  118  Occ=0.000000D+00  E= 5.069543D+00
              MO Center=  7.5D-05,  1.9D-01, -2.6D-04, r^2= 2.1D+00
   Bfn.  Coefficient  Atom+Function         Bfn.  Coefficient  Atom+Function  
  ----- ------------  ---------------      ----- ------------  ---------------
    46      1.674392   3 N  py               84      1.674426   5 N  py        
    27      1.452823   2 C  py              103      1.452876   6 C  py        
    55     -1.410176   3 N  dyy              93     -1.410205   5 N  dyy       
    36      1.137379   2 C  dyy             112      1.137422   6 C  dyy       
    10      0.886860   1 C  s                29     -0.837740   2 C  s         

 Vector  119  Occ=0.000000D+00  E= 5.162208D+00
              MO Center= -2.0D-05,  1.1D-01, -1.8D-04, r^2= 2.1D+00
   Bfn.  Coefficient  Atom+Function         Bfn.  Coefficient  Atom+Function  
  ----- ------------  ---------------      ----- ------------  ---------------
    27      1.942970   2 C  py              103     -1.942641   6 C  py        
     7     -1.713847   1 C  px               46      1.548956   3 N  py        
    84     -1.548815   5 N  py               55     -1.510469   3 N  dyy       
    93      1.510416   5 N  dyy              15     -1.456895   1 C  dxy       
    36      1.007114   2 C  dyy             112     -1.007290   6 C  dyy       

 Vector  120  Occ=0.000000D+00  E= 5.275793D+00
              MO Center=  1.5D-04,  8.6D-01, -2.0D-04, r^2= 1.3D+00
   Bfn.  Coefficient  Atom+Function         Bfn.  Coefficient  Atom+Function  
  ----- ------------  ---------------      ----- ------------  ---------------
    64      2.804394   4 C  px               72     -2.370498   4 C  dxy       
    45      1.715467   3 N  px               83      1.715101   5 N  px        
    52      1.296094   3 N  dxx              90     -1.295855   5 N  dxx       
    46      1.124122   3 N  py               84     -1.124701   5 N  py        
    53      0.723216   3 N  dxy              91      0.723894   5 N  dxy       

 Vector  121  Occ=0.000000D+00  E= 2.646968D+01
              MO Center=  4.6D-04, -6.2D-01, -7.3D-05, r^2= 1.5D+00
   Bfn.  Coefficient  Atom+Function         Bfn.  Coefficient  Atom+Function  
  ----- ------------  ---------------      ----- ------------  ---------------
    21      1.814612   2 C  s                97     -1.815451   6 C  s         
    20     -1.493041   2 C  s                96      1.493731   6 C  s         
    25     -0.772043   2 C  s               101      0.772430   6 C  s         
    29     -0.573584   2 C  s               105      0.574031   6 C  s         
    36      0.499715   2 C  dyy             112     -0.499853   6 C  dyy       

 Vector  122  Occ=0.000000D+00  E= 2.647167D+01
              MO Center= -4.7D-04,  3.6D-01,  1.7D-04, r^2= 1.8D+00
   Bfn.  Coefficient  Atom+Function         Bfn.  Coefficient  Atom+Function  
  ----- ------------  ---------------      ----- ------------  ---------------
    59      2.022729   4 C  s                58     -1.663574   4 C  s         
     2     -1.381978   1 C  s                 1      1.138255   1 C  s         
    63     -0.867455   4 C  s                 6      0.629757   1 C  s         
    71      0.574170   4 C  dxx              21     -0.542755   2 C  s         
    97     -0.539999   6 C  s                74      0.511572   4 C  dyy       

 Vector  123  Occ=0.000000D+00  E= 2.651013D+01
              MO Center= -2.7D-05, -1.6D-01,  2.4D-05, r^2= 1.9D+00
   Bfn.  Coefficient  Atom+Function         Bfn.  Coefficient  Atom+Function  
  ----- ------------  ---------------      ----- ------------  ---------------
    21      1.384657   2 C  s                59      1.384662   4 C  s         
    97      1.384641   6 C  s                20     -1.136920   2 C  s         
    58     -1.136409   4 C  s                96     -1.136907   6 C  s         
     2      0.935942   1 C  s                10     -0.824243   1 C  s         
     1     -0.769670   1 C  s                48     -0.648761   3 N  s         

 Vector  124  Occ=0.000000D+00  E= 2.668278D+01
              MO Center= -1.4D-04, -8.7D-01,  3.6D-04, r^2= 1.2D+00
   Bfn.  Coefficient  Atom+Function         Bfn.  Coefficient  Atom+Function  
  ----- ------------  ---------------      ----- ------------  ---------------
     2      1.968408   1 C  s                 1     -1.608244   1 C  s         
    10     -1.614475   1 C  s                21     -1.058177   2 C  s         
    97     -1.058168   6 C  s                29      0.964045   2 C  s         
   105      0.964046   6 C  s                20      0.863653   2 C  s         
    96      0.863646   6 C  s                59      0.781128   4 C  s         

 Vector  125  Occ=0.000000D+00  E= 3.965209D+01
              MO Center=  2.6D-04,  7.1D-01, -3.1D-04, r^2= 1.5D+00
   Bfn.  Coefficient  Atom+Function         Bfn.  Coefficient  Atom+Function  
  ----- ------------  ---------------      ----- ------------  ---------------
    40      1.873708   3 N  s                78      1.873927   5 N  s         
    39     -1.573604   3 N  s                77     -1.573789   5 N  s         
    48     -0.858046   3 N  s                86     -0.858119   5 N  s         
    44     -0.709795   3 N  s                82     -0.709880   5 N  s         
    29      0.539902   2 C  s               105      0.539921   6 C  s         

 Vector  126  Occ=0.000000D+00  E= 3.967261D+01
              MO Center= -2.2D-05,  7.1D-01, -3.1D-04, r^2= 1.5D+00
   Bfn.  Coefficient  Atom+Function         Bfn.  Coefficient  Atom+Function  
  ----- ------------  ---------------      ----- ------------  ---------------
    40      1.876118   3 N  s                78     -1.875898   5 N  s         
    39     -1.574513   3 N  s                77      1.574329   5 N  s         
    44     -0.719554   3 N  s                82      0.719471   5 N  s         
    48     -0.677679   3 N  s                86      0.677576   5 N  s         
    55      0.495971   3 N  dyy              93     -0.495928   5 N  dyy       


 center of mass
 --------------
 x =   0.00001929 y =   0.05228511 z =   0.00000060

 moments of inertia (a.u.)
 ------------------
         284.328303050624           0.002601095162           0.001672217518
           0.002601095162         294.652429630553           0.085628311204
           0.001672217518           0.085628311204         578.980596857885

     Multipole analysis of the density
     ---------------------------------

     L   x y z        total         alpha         beta         nuclear
     -   - - -        -----         -----         ----         -------
     0   0 0 0      0.000000    -21.000000    -21.000000     42.000000

     1   1 0 0     -0.000148     -0.000304     -0.000304      0.000459
     1   0 1 0     -0.914086     -0.434783     -0.434783     -0.044520
     1   0 0 1      0.000912     -0.000805     -0.000805      0.002521

     2   2 0 0    -27.186771    -95.420177    -95.420177    163.653582
     2   1 1 0      0.000744      0.000293      0.000293      0.000159
     2   1 0 1      0.000453      0.000233      0.000233     -0.000013
     2   0 2 0    -22.534358    -94.894620    -94.894620    167.254882
     2   0 1 1     -0.003288      0.026141      0.026141     -0.055571
     2   0 0 2    -26.598000    -13.299026    -13.299026      0.000053


 Parallel integral file used     490 records with       0 large values

 Line search: 
     step= 1.00 grad=-2.9D-04 hess= 1.4D-04 energy=   -264.071310 mode=accept  
 new step= 1.00                   predicted energy=   -264.071310

          --------
          Step   2
          --------


                         Geometry "geometry" -> "geometry"
                         ---------------------------------

 Output coordinates in angstroms (scale by  1.889725989 to convert to a.u.)

  No.       Tag          Charge          X              Y              Z
 ---- ---------------- ---------- -------------- -------------- --------------
    1 C                    6.0000    -0.00020968    -1.34696308     0.00067923
    2 C                    6.0000    -1.17850064    -0.61940890    -0.00009005
    3 N                    7.0000    -1.19327711     0.71216310    -0.00026262
    4 C                    6.0000     0.00021308     1.30015067    -0.00004297
    5 N                    7.0000     1.19351303     0.71177455    -0.00035129
    6 C                    6.0000     1.17831798    -0.61979380    -0.00005128
    7 H                    1.0000    -0.00039405    -2.43055519     0.00322081
    8 H                    1.0000    -2.14786440    -1.11606308    -0.00038812
    9 H                    1.0000     0.00039503     2.38833549     0.00000047
   10 H                    1.0000     2.14753056    -1.11674928    -0.00017134

      Atomic Mass 
      ----------- 

      C                 12.000000
      N                 14.003070
      H                  1.007825


 Effective nuclear repulsion energy (a.u.)     209.7102038898

            Nuclear Dipole moment (a.u.) 
            ----------------------------
        X                 Y               Z
 ---------------- ---------------- ----------------
     0.0004593358    -0.0445204323     0.0025210864


                                 NWChem DFT Module
                                 -----------------


             pyrimidine geometry optimization, PBE0/6-311G* Cartesian




 Summary of "ao basis" -> "ao basis" (cartesian)
 ------------------------------------------------------------------------------
       Tag                 Description            Shells   Functions and Types
 ---------------- ------------------------------  ------  ---------------------
 C                          6-311G*                  8       19   4s3p1d
 N                          6-311G*                  8       19   4s3p1d
 H                          6-311G*                  3        3   3s



  The DFT is already converged 

         Total DFT energy =   -264.071309813173


            General Information
            -------------------
          SCF calculation type: DFT
          Wavefunction type:  closed shell.
          No. of atoms     :    10
          No. of electrons :    42
           Alpha electrons :    21
            Beta electrons :    21
          Charge           :     0
          Spin multiplicity:     1
          Use of symmetry is: off; symmetry adaption is: off
          Maximum number of iterations: 100
          AO basis - number of functions:   126
                     number of shells:    60
          Convergence on energy requested:  1.00D-07
          Convergence on density requested:  1.00D-05
          Convergence on gradient requested:  5.00D-04

              XC Information
              --------------
                         PBE0 Method XC Functional
                     Hartree-Fock (Exact) Exchange  0.250          
          PerdewBurkeErnzerhof Exchange Functional  0.750          
            Perdew 1991 LDA Correlation Functional  1.000 local    
           PerdewBurkeErnz. Correlation Functional  1.000 non-local

             Grid Information
             ----------------
          Grid used for XC integration:  fine      
          Radial quadrature: Mura-Knowles        
          Angular quadrature: Lebedev. 
          Tag              B.-S. Rad. Rad. Pts. Rad. Cut. Ang. Pts.
          ---              ---------- --------- --------- ---------
          C                   0.70       70          11.0       590
          N                   0.65       70          11.0       590
          H                   0.35       60          13.0       590
          Grid pruning is: on 
          Number of quadrature shells:   660
          Spatial weights used:  Erf1

          Convergence Information
          -----------------------
          Convergence aids based upon iterative change in 
          total energy or number of iterations. 
          Levelshifting, if invoked, occurs when the 
          HOMO/LUMO gap drops below (HL_TOL):  1.00D-02
          DIIS, if invoked, will attempt to extrapolate 
          using up to (NFOCK): 10 stored Fock matrices.

                    Damping( 0%)  Levelshifting(0.5)       DIIS
                  --------------- ------------------- ---------------
          dE  on:    start            ASAP                start   
          dE off:    2 iters        100 iters           100 iters 


      Screening Tolerance Information
      -------------------------------
          Density screening/tol_rho:  1.00D-10
          AO Gaussian exp screening on grid/accAOfunc:  16
          CD Gaussian exp screening on grid/accCDfunc:  20
          XC Gaussian exp screening on grid/accXCfunc:  20
          Schwarz screening/accCoul:  1.00D-08



                            NWChem DFT Gradient Module
                            --------------------------


             pyrimidine geometry optimization, PBE0/6-311G* Cartesian



  charge          =   0.00
  wavefunction    = closed shell



                         DFT ENERGY GRADIENTS

    atom               coordinates                        gradient
                 x          y          z           x          y          z
   1 C      -0.000396  -2.545391   0.001284    0.000001   0.003008  -0.000079
   2 C      -2.227043  -1.170513  -0.000170    0.002048  -0.001595  -0.000041
   3 N      -2.254967   1.345793  -0.000496   -0.000284   0.000363   0.000036
   4 C       0.000403   2.456929  -0.000081   -0.000001  -0.000231   0.000044
   5 N       2.255413   1.345059  -0.000664    0.000283   0.000362   0.000025
   6 C       2.226698  -1.171240  -0.000097   -0.002049  -0.001596  -0.000043
   7 H      -0.000745  -4.593083   0.006086   -0.000000   0.000645   0.000101
   8 H      -4.058875  -2.109053  -0.000733   -0.000435  -0.000629  -0.000016
   9 H       0.000747   4.513300   0.000001    0.000001   0.000303  -0.000017
  10 H       4.058244  -2.110350  -0.000324    0.000437  -0.000629  -0.000009

                 ----------------------------------------
                 |  Time  |  1-e(secs)   |  2-e(secs)   |
                 ----------------------------------------
                 |  CPU   |       0.01   |       3.17   |
                 ----------------------------------------
                 |  WALL  |       0.01   |       3.17   |
                 ----------------------------------------

  Step       Energy      Delta E   Gmax     Grms     Xrms     Xmax   Walltime
  ---- ---------------- -------- -------- -------- -------- -------- --------
@    2    -264.07130981 -1.6D-04  0.00301  0.00091  0.00894  0.02368     63.2
                                                                    


                                 NWChem DFT Module
                                 -----------------


             pyrimidine geometry optimization, PBE0/6-311G* Cartesian




 Summary of "ao basis" -> "ao basis" (cartesian)
 ------------------------------------------------------------------------------
       Tag                 Description            Shells   Functions and Types
 ---------------- ------------------------------  ------  ---------------------
 C                          6-311G*                  8       19   4s3p1d
 N                          6-311G*                  8       19   4s3p1d
 H                          6-311G*                  3        3   3s


  Caching 1-el integrals 

            General Information
            -------------------
          SCF calculation type: DFT
          Wavefunction type:  closed shell.
          No. of atoms     :    10
          No. of electrons :    42
           Alpha electrons :    21
            Beta electrons :    21
          Charge           :     0
          Spin multiplicity:     1
          Use of symmetry is: off; symmetry adaption is: off
          Maximum number of iterations: 100
          AO basis - number of functions:   126
                     number of shells:    60
          Convergence on energy requested:  1.00D-07
          Convergence on density requested:  1.00D-05
          Convergence on gradient requested:  5.00D-04

              XC Information
              --------------
                         PBE0 Method XC Functional
                     Hartree-Fock (Exact) Exchange  0.250          
          PerdewBurkeErnzerhof Exchange Functional  0.750          
            Perdew 1991 LDA Correlation Functional  1.000 local    
           PerdewBurkeErnz. Correlation Functional  1.000 non-local

             Grid Information
             ----------------
          Grid used for XC integration:  fine      
          Radial quadrature: Mura-Knowles        
          Angular quadrature: Lebedev. 
          Tag              B.-S. Rad. Rad. Pts. Rad. Cut. Ang. Pts.
          ---              ---------- --------- --------- ---------
          C                   0.70       70          11.0       590
          N                   0.65       70          11.0       590
          H                   0.35       60          13.0       590
          Grid pruning is: on 
          Number of quadrature shells:   660
          Spatial weights used:  Erf1

          Convergence Information
          -----------------------
          Convergence aids based upon iterative change in 
          total energy or number of iterations. 
          Levelshifting, if invoked, occurs when the 
          HOMO/LUMO gap drops below (HL_TOL):  1.00D-02
          DIIS, if invoked, will attempt to extrapolate 
          using up to (NFOCK): 10 stored Fock matrices.

                    Damping( 0%)  Levelshifting(0.5)       DIIS
                  --------------- ------------------- ---------------
          dE  on:    start            ASAP                start   
          dE off:    2 iters        100 iters           100 iters 


      Screening Tolerance Information
      -------------------------------
          Density screening/tol_rho:  1.00D-10
          AO Gaussian exp screening on grid/accAOfunc:  16
          CD Gaussian exp screening on grid/accCDfunc:  20
          XC Gaussian exp screening on grid/accXCfunc:  20
          Schwarz screening/accCoul:  1.00D-08


 Loading old vectors from job with title :

pyrimidine geometry optimization, PBE0/6-311G* Cartesian

   Time after variat. SCF:     63.2
   Time prior to 1st pass:     63.2

 Integral file          = /Users/bldrdge1/Downloads/repos/PlasMol/jobs/final/Step_1/pyrimidine/pyrimidine_opt.aoints.0
 Record size in doubles =  65536        No. of integs per rec  =  43688
 Max. records in memory =    995        Max. records in file   = 160116
 No. of bits per label  =      8        No. of bits per value  =     64


 #quartets = 1.347D+06 #integrals = 2.206D+07 #direct =  0.0% #cached =100.0%

  avail0,avail1,avail0-avail1                 84262                84257                    5
  avail0,avail1,avail0-avail1                 84262                84272                  -10
  avail0,avail1,avail0-avail1                 84262                84272                  -10
  avail0,avail1,avail0-avail1                 84262                84272                  -10

 Grid_pts file          = /Users/bldrdge1/Downloads/repos/PlasMol/jobs/final/Step_1/pyrimidine/pyrimidine_opt.gridpts.0
 Record size in doubles =  12289        No. of grid_pts per rec  =   3070
 Max. records in memory =    141        Max. recs in file   =    853785


           Memory utilization after 1st SCF pass: 
           Heap Space remaining (MW):       14.94            14938436
          Stack Space remaining (MW):       81.92            81919076

   convergence    iter        energy       DeltaE   RMS-Dens  Diis-err    time
 ---------------- ----- ----------------- --------- --------- ---------  ------
 d= 0,ls=0.0,diis     1   -264.0713235472 -4.74D+02  7.08D-05  5.40D-05    65.9
 d= 0,ls=0.0,diis     2   -264.0713297562 -6.21D-06  2.98D-05  1.22D-05    67.3
 d= 0,ls=0.0,diis     3   -264.0713295639  1.92D-07  1.76D-05  1.31D-05    68.7
 d= 0,ls=0.0,diis     4   -264.0713312066 -1.64D-06  2.82D-06  3.17D-07    70.2
 d= 0,ls=0.0,diis     5   -264.0713312419 -3.53D-08  5.69D-07  2.49D-08    71.6


         Total DFT energy =     -264.071331241857
      One electron energy =     -771.114185669721
           Coulomb energy =      334.099216400130
    Exchange-Corr. energy =      -36.711030090078
 Nuclear repulsion energy =      209.654668117813

 Numeric. integr. density =       42.000002223011

     Total iterative time =      8.4s



                       DFT Final Molecular Orbital Analysis
                       ------------------------------------

 Vector    1  Occ=2.000000D+00  E=-1.439367D+01
              MO Center=  1.0D-02,  7.1D-01, -4.2D-04, r^2= 1.4D+00
   Bfn.  Coefficient  Atom+Function         Bfn.  Coefficient  Atom+Function  
  ----- ------------  ---------------      ----- ------------  ---------------
    77     -0.396377   5 N  s                39      0.393036   3 N  s         
    78     -0.328555   5 N  s                40      0.325786   3 N  s         

 Vector    2  Occ=2.000000D+00  E=-1.439366D+01
              MO Center= -1.0D-02,  7.1D-01, -4.2D-04, r^2= 1.4D+00
   Bfn.  Coefficient  Atom+Function         Bfn.  Coefficient  Atom+Function  
  ----- ------------  ---------------      ----- ------------  ---------------
    39      0.396373   3 N  s                77      0.393032   5 N  s         
    40      0.328577   3 N  s                78      0.325808   5 N  s         

 Vector    3  Occ=2.000000D+00  E=-1.029669D+01
              MO Center=  2.2D-04,  1.3D+00, -1.8D-04, r^2= 2.8D-02
   Bfn.  Coefficient  Atom+Function         Bfn.  Coefficient  Atom+Function  
  ----- ------------  ---------------      ----- ------------  ---------------
    58      0.563889   4 C  s                59      0.460081   4 C  s         

 Vector    4  Occ=2.000000D+00  E=-1.028581D+01
              MO Center=  3.6D-02, -6.2D-01,  6.7D-05, r^2= 1.4D+00
   Bfn.  Coefficient  Atom+Function         Bfn.  Coefficient  Atom+Function  
  ----- ------------  ---------------      ----- ------------  ---------------
    96      0.404756   6 C  s                20      0.392519   2 C  s         
    97      0.330213   6 C  s                21      0.320228   2 C  s         

 Vector    5  Occ=2.000000D+00  E=-1.028580D+01
              MO Center= -3.6D-02, -6.2D-01,  6.5D-05, r^2= 1.4D+00
   Bfn.  Coefficient  Atom+Function         Bfn.  Coefficient  Atom+Function  
  ----- ------------  ---------------      ----- ------------  ---------------
    20      0.404785   2 C  s                96     -0.392548   6 C  s         
    21      0.330290   2 C  s                97     -0.320307   6 C  s         

 Vector    6  Occ=2.000000D+00  E=-1.025314D+01
              MO Center= -2.1D-04, -1.4D+00,  9.7D-04, r^2= 2.8D-02
   Bfn.  Coefficient  Atom+Function         Bfn.  Coefficient  Atom+Function  
  ----- ------------  ---------------      ----- ------------  ---------------
     1      0.563776   1 C  s                 2      0.459918   1 C  s         

 Vector    7  Occ=2.000000D+00  E=-1.026926D+00
              MO Center=  7.4D-05,  4.3D-01, -1.9D-04, r^2= 1.6D+00
   Bfn.  Coefficient  Atom+Function         Bfn.  Coefficient  Atom+Function  
  ----- ------------  ---------------      ----- ------------  ---------------
    44      0.264906   3 N  s                82      0.264905   5 N  s         
    63      0.240768   4 C  s                48      0.199395   3 N  s         
    86      0.199394   5 N  s                25      0.157855   2 C  s         
   101      0.157854   6 C  s                40     -0.099127   3 N  s         
    78     -0.099127   5 N  s                 6      0.093724   1 C  s         

 Vector    8  Occ=2.000000D+00  E=-9.265054D-01
              MO Center=  6.9D-05,  3.7D-01, -2.2D-04, r^2= 1.9D+00
   Bfn.  Coefficient  Atom+Function         Bfn.  Coefficient  Atom+Function  
  ----- ------------  ---------------      ----- ------------  ---------------
    44      0.319890   3 N  s                82     -0.319891   5 N  s         
    48      0.217224   3 N  s                86     -0.217224   5 N  s         
    25      0.190785   2 C  s               101     -0.190785   6 C  s         
    40     -0.116662   3 N  s                64     -0.116251   4 C  px        
    78      0.116663   5 N  s                60     -0.078189   4 C  px        

 Vector    9  Occ=2.000000D+00  E=-8.273165D-01
              MO Center= -7.5D-05, -5.0D-01,  3.8D-04, r^2= 2.2D+00
   Bfn.  Coefficient  Atom+Function         Bfn.  Coefficient  Atom+Function  
  ----- ------------  ---------------      ----- ------------  ---------------
     6      0.339280   1 C  s                63     -0.232230   4 C  s         
    25      0.209699   2 C  s               101      0.209699   6 C  s         
    10      0.144363   1 C  s                 2     -0.128521   1 C  s         
    67     -0.110225   4 C  s                29      0.106603   2 C  s         
   105      0.106603   6 C  s                44     -0.099586   3 N  s         

 Vector   10  Occ=2.000000D+00  E=-6.859597D-01
              MO Center=  3.3D-04, -2.4D-01,  3.2D-05, r^2= 3.0D+00
   Bfn.  Coefficient  Atom+Function         Bfn.  Coefficient  Atom+Function  
  ----- ------------  ---------------      ----- ------------  ---------------
    25      0.273252   2 C  s               101     -0.273349   6 C  s         
    29      0.171354   2 C  s               105     -0.171439   6 C  s         
    64      0.157053   4 C  px               44     -0.142124   3 N  s         
    82      0.142029   5 N  s                 7     -0.135165   1 C  px        
    48     -0.117840   3 N  s                86      0.117767   5 N  s         

 Vector   11  Occ=2.000000D+00  E=-6.853594D-01
              MO Center= -3.4D-04,  9.7D-02,  1.4D-04, r^2= 3.0D+00
   Bfn.  Coefficient  Atom+Function         Bfn.  Coefficient  Atom+Function  
  ----- ------------  ---------------      ----- ------------  ---------------
    63      0.281651   4 C  s                 6      0.246352   1 C  s         
    10      0.199916   1 C  s                67      0.177447   4 C  s         
    46      0.125380   3 N  py               84      0.125316   5 N  py        
    27     -0.109470   2 C  py              103     -0.109496   6 C  py        
    25     -0.102381   2 C  s               101     -0.102125   6 C  s         

 Vector   12  Occ=2.000000D+00  E=-5.630012D-01
              MO Center= -1.3D-05, -1.4D-01,  4.7D-05, r^2= 3.9D+00
   Bfn.  Coefficient  Atom+Function         Bfn.  Coefficient  Atom+Function  
  ----- ------------  ---------------      ----- ------------  ---------------
    26      0.167573   2 C  px              102     -0.167555   6 C  px        
    65     -0.160360   4 C  py                8      0.120767   1 C  py        
    29     -0.116937   2 C  s               105     -0.116937   6 C  s         
    22      0.103370   2 C  px               98     -0.103360   6 C  px        
    67     -0.102023   4 C  s               119     -0.102037   8 H  s         

 Vector   13  Occ=2.000000D+00  E=-5.391294D-01
              MO Center= -5.3D-06, -1.1D-01,  5.8D-05, r^2= 2.5D+00
   Bfn.  Coefficient  Atom+Function         Bfn.  Coefficient  Atom+Function  
  ----- ------------  ---------------      ----- ------------  ---------------
     7      0.184876   1 C  px               27      0.178346   2 C  py        
   103     -0.178328   6 C  py               64      0.173776   4 C  px        
    46     -0.165753   3 N  py               84      0.165785   5 N  py        
     3      0.122487   1 C  px               23      0.121801   2 C  py        
    60      0.121665   4 C  px               99     -0.121787   6 C  py        

 Vector   14  Occ=2.000000D+00  E=-4.908414D-01
              MO Center= -1.5D-04, -9.4D-01,  1.2D-03, r^2= 3.5D+00
   Bfn.  Coefficient  Atom+Function         Bfn.  Coefficient  Atom+Function  
  ----- ------------  ---------------      ----- ------------  ---------------
     8      0.265492   1 C  py              116     -0.195889   7 H  s         
     4      0.167833   1 C  py               12      0.165752   1 C  py        
   115     -0.161589   7 H  s                65      0.138692   4 C  py        
    25      0.126495   2 C  s               101      0.126494   6 C  s         
    44     -0.120780   3 N  s                82     -0.120780   5 N  s         

 Vector   15  Occ=2.000000D+00  E=-4.507620D-01
              MO Center=  4.4D-05,  2.5D-01, -2.4D-05, r^2= 2.4D+00
   Bfn.  Coefficient  Atom+Function         Bfn.  Coefficient  Atom+Function  
  ----- ------------  ---------------      ----- ------------  ---------------
    47      0.186241   3 N  pz               85      0.186240   5 N  pz        
    66      0.183997   4 C  pz               28      0.147566   2 C  pz        
   104      0.147565   6 C  pz               51      0.130980   3 N  pz        
    89      0.130980   5 N  pz               70      0.125940   4 C  pz        
     9      0.121912   1 C  pz               43      0.117324   3 N  pz        

 Vector   16  Occ=2.000000D+00  E=-4.401148D-01
              MO Center= -7.8D-05, -5.8D-01, -2.4D-05, r^2= 3.4D+00
   Bfn.  Coefficient  Atom+Function         Bfn.  Coefficient  Atom+Function  
  ----- ------------  ---------------      ----- ------------  ---------------
    26      0.223806   2 C  px              102      0.223787   6 C  px        
     7     -0.161233   1 C  px               22      0.144305   2 C  px        
    98      0.144294   6 C  px              119     -0.142884   8 H  s         
   125      0.142886  10 H  s                30      0.138971   2 C  px        
   106      0.138958   6 C  px              118     -0.112192   8 H  s         

 Vector   17  Occ=2.000000D+00  E=-4.302755D-01
              MO Center=  5.5D-05,  3.5D-01, -2.1D-04, r^2= 3.8D+00
   Bfn.  Coefficient  Atom+Function         Bfn.  Coefficient  Atom+Function  
  ----- ------------  ---------------      ----- ------------  ---------------
    65      0.244354   4 C  py               61      0.152966   4 C  py        
    69      0.152782   4 C  py               10      0.141480   1 C  s         
   122      0.137658   9 H  s                45     -0.134728   3 N  px        
    83      0.134709   5 N  px              119     -0.121522   8 H  s         
   125     -0.121519  10 H  s                27      0.115326   2 C  py        

 Vector   18  Occ=2.000000D+00  E=-3.379585D-01
              MO Center=  4.0D-05,  1.9D-01, -1.9D-04, r^2= 2.6D+00
   Bfn.  Coefficient  Atom+Function         Bfn.  Coefficient  Atom+Function  
  ----- ------------  ---------------      ----- ------------  ---------------
    47      0.235256   3 N  pz               85     -0.235257   5 N  pz        
    51      0.210628   3 N  pz               89     -0.210629   5 N  pz        
    28      0.191089   2 C  pz              104     -0.191088   6 C  pz        
    32      0.165566   2 C  pz              108     -0.165566   6 C  pz        
    43      0.151186   3 N  pz               81     -0.151187   5 N  pz        

 Vector   19  Occ=2.000000D+00  E=-3.210301D-01
              MO Center=  1.3D-04,  7.0D-01, -1.0D-04, r^2= 3.2D+00
   Bfn.  Coefficient  Atom+Function         Bfn.  Coefficient  Atom+Function  
  ----- ------------  ---------------      ----- ------------  ---------------
    48      0.235661   3 N  s                86      0.235662   5 N  s         
    50      0.184552   3 N  py               88      0.184507   5 N  py        
    46      0.180187   3 N  py               84      0.180145   5 N  py        
    44      0.179173   3 N  s                82      0.179174   5 N  s         
   122     -0.145327   9 H  s                49     -0.140975   3 N  px        

 Vector   20  Occ=2.000000D+00  E=-3.063463D-01
              MO Center= -4.2D-05, -3.1D-01,  2.6D-04, r^2= 2.7D+00
   Bfn.  Coefficient  Atom+Function         Bfn.  Coefficient  Atom+Function  
  ----- ------------  ---------------      ----- ------------  ---------------
     9      0.266879   1 C  pz               13      0.253429   1 C  pz        
    66     -0.218479   4 C  pz               70     -0.195783   4 C  pz        
     5      0.164479   1 C  pz               28      0.146298   2 C  pz        
   104      0.146299   6 C  pz               62     -0.133743   4 C  pz        
    32      0.113234   2 C  pz              108      0.113235   6 C  pz        

 Vector   21  Occ=2.000000D+00  E=-2.711703D-01
              MO Center=  8.4D-05,  5.2D-01, -4.5D-04, r^2= 3.2D+00
   Bfn.  Coefficient  Atom+Function         Bfn.  Coefficient  Atom+Function  
  ----- ------------  ---------------      ----- ------------  ---------------
    49      0.267218   3 N  px               87      0.267249   5 N  px        
    45      0.248208   3 N  px               83      0.248238   5 N  px        
    11      0.202435   1 C  px               41      0.171399   3 N  px        
    79      0.171419   5 N  px               64     -0.135725   4 C  px        
     7      0.117110   1 C  px               44     -0.117253   3 N  s         

 Vector   22  Occ=0.000000D+00  E=-4.258222D-02
              MO Center= -1.2D-05, -1.6D-01, -6.1D-05, r^2= 3.1D+00
   Bfn.  Coefficient  Atom+Function         Bfn.  Coefficient  Atom+Function  
  ----- ------------  ---------------      ----- ------------  ---------------
    32      0.422913   2 C  pz              108     -0.422921   6 C  pz        
    51     -0.352144   3 N  pz               89      0.352140   5 N  pz        
    28      0.250271   2 C  pz              104     -0.250275   6 C  pz        
    47     -0.200323   3 N  pz               85      0.200321   5 N  pz        
    24      0.157135   2 C  pz              100     -0.157137   6 C  pz        

 Vector   23  Occ=0.000000D+00  E=-3.038593D-02
              MO Center=  1.9D-05,  9.2D-02,  1.2D-04, r^2= 3.2D+00
   Bfn.  Coefficient  Atom+Function         Bfn.  Coefficient  Atom+Function  
  ----- ------------  ---------------      ----- ------------  ---------------
    13      0.516057   1 C  pz               70      0.465749   4 C  pz        
    66      0.296044   4 C  pz               32     -0.286455   2 C  pz        
   108     -0.286444   6 C  pz                9      0.234911   1 C  pz        
    51     -0.198254   3 N  pz               89     -0.198263   5 N  pz        
    62      0.180901   4 C  pz                5      0.157246   1 C  pz        

 Vector   24  Occ=0.000000D+00  E= 5.644988D-02
              MO Center= -3.4D-04, -2.0D+00,  1.6D-03, r^2= 6.8D+00
   Bfn.  Coefficient  Atom+Function         Bfn.  Coefficient  Atom+Function  
  ----- ------------  ---------------      ----- ------------  ---------------
   117      1.271391   7 H  s                10     -0.899657   1 C  s         
   120      0.877937   8 H  s               126      0.877918  10 H  s         
    29     -0.645444   2 C  s               105     -0.645429   6 C  s         
    12      0.540025   1 C  py               30      0.303637   2 C  px        
   106     -0.303585   6 C  px              123      0.278299   9 H  s         

 Vector   25  Occ=0.000000D+00  E= 9.450202D-02
              MO Center= -1.6D-04, -1.4D+00, -3.7D-04, r^2= 9.4D+00
   Bfn.  Coefficient  Atom+Function         Bfn.  Coefficient  Atom+Function  
  ----- ------------  ---------------      ----- ------------  ---------------
   120      1.540145   8 H  s               126     -1.540179  10 H  s         
    29     -1.161233   2 C  s               105      1.161241   6 C  s         
    30      0.678272   2 C  px              106      0.678184   6 C  px        
    31      0.331826   2 C  py              107     -0.332051   6 C  py        
    11     -0.314654   1 C  px               25     -0.126687   2 C  s         

 Vector   26  Occ=0.000000D+00  E= 1.024774D-01
              MO Center=  3.5D-04,  2.1D+00,  7.3D-04, r^2= 6.5D+00
   Bfn.  Coefficient  Atom+Function         Bfn.  Coefficient  Atom+Function  
  ----- ------------  ---------------      ----- ------------  ---------------
   123      1.992184   9 H  s                67     -1.109442   4 C  s         
    69     -1.013049   4 C  py              117     -0.854108   7 H  s         
    12     -0.547690   1 C  py               10      0.354431   1 C  s         
    48     -0.262986   3 N  s                86     -0.262985   5 N  s         
   120      0.180438   8 H  s               126      0.180407  10 H  s         

 Vector   27  Occ=0.000000D+00  E= 1.205816D-01
              MO Center= -2.4D-04, -1.4D+00,  1.3D-03, r^2= 9.5D+00
   Bfn.  Coefficient  Atom+Function         Bfn.  Coefficient  Atom+Function  
  ----- ------------  ---------------      ----- ------------  ---------------
   117      1.714146   7 H  s               120     -1.232141   8 H  s         
   126     -1.232125  10 H  s                12      1.195718   1 C  py        
   123      0.763952   9 H  s                10     -0.671675   1 C  s         
    30     -0.662522   2 C  px              106      0.662318   6 C  px        
    31     -0.622454   2 C  py              107     -0.622658   6 C  py        

 Vector   28  Occ=0.000000D+00  E= 1.329228D-01
              MO Center= -6.9D-08, -2.7D-02, -2.4D-04, r^2= 3.5D+00
   Bfn.  Coefficient  Atom+Function         Bfn.  Coefficient  Atom+Function  
  ----- ------------  ---------------      ----- ------------  ---------------
    13      0.632403   1 C  pz               32     -0.563487   2 C  pz        
   108     -0.563484   6 C  pz               70     -0.505971   4 C  pz        
    51      0.484744   3 N  pz               89      0.484742   5 N  pz        
    47      0.215360   3 N  pz               85      0.215360   5 N  pz        
     9      0.207924   1 C  pz               66     -0.194947   4 C  pz        

 Vector   29  Occ=0.000000D+00  E= 2.110673D-01
              MO Center=  5.9D-05, -6.9D-02,  2.0D-04, r^2= 4.9D+00
   Bfn.  Coefficient  Atom+Function         Bfn.  Coefficient  Atom+Function  
  ----- ------------  ---------------      ----- ------------  ---------------
    48      2.252727   3 N  s                86      2.252912   5 N  s         
    67     -1.909261   4 C  s                10     -1.300260   1 C  s         
    31     -1.122158   2 C  py              107     -1.122044   6 C  py        
    69      1.037061   4 C  py               29     -0.904267   2 C  s         
   105     -0.904459   6 C  s                30      0.558231   2 C  px        

 Vector   30  Occ=0.000000D+00  E= 2.141813D-01
              MO Center= -8.0D-05, -1.8D-01,  2.7D-04, r^2= 5.1D+00
   Bfn.  Coefficient  Atom+Function         Bfn.  Coefficient  Atom+Function  
  ----- ------------  ---------------      ----- ------------  ---------------
    48     -1.992705   3 N  s                86      1.992468   5 N  s         
    29      1.828405   2 C  s               105     -1.828292   6 C  s         
    11      1.102744   1 C  px               68     -1.091793   4 C  px        
    31      0.762086   2 C  py              107     -0.762189   6 C  py        
    30      0.661706   2 C  px              106      0.661505   6 C  px        

 Vector   31  Occ=0.000000D+00  E= 2.774425D-01
              MO Center= -1.4D-04, -9.9D-01, -2.2D-04, r^2= 4.4D+00
   Bfn.  Coefficient  Atom+Function         Bfn.  Coefficient  Atom+Function  
  ----- ------------  ---------------      ----- ------------  ---------------
    10      2.926862   1 C  s                29     -1.969814   2 C  s         
   105     -1.969849   6 C  s                12      1.869002   1 C  py        
    67     -1.873625   4 C  s                30     -1.266518   2 C  px        
   106      1.266648   6 C  px               48      0.981588   3 N  s         
    86      0.981660   5 N  s               116      0.825305   7 H  s         

 Vector   32  Occ=0.000000D+00  E= 3.043475D-01
              MO Center=  4.5D-05,  2.8D-01,  5.7D-04, r^2= 5.7D+00
   Bfn.  Coefficient  Atom+Function         Bfn.  Coefficient  Atom+Function  
  ----- ------------  ---------------      ----- ------------  ---------------
    68      2.467666   4 C  px               11      1.677097   1 C  px        
    29      1.564776   2 C  s               105     -1.564919   6 C  s         
    48      1.439485   3 N  s                86     -1.439449   5 N  s         
    50      0.726488   3 N  py               88     -0.726652   5 N  py        
    49      0.490216   3 N  px               87      0.489959   5 N  px        

 Vector   33  Occ=0.000000D+00  E= 3.285698D-01
              MO Center= -3.0D-05, -2.9D-01,  4.5D-04, r^2= 4.4D+00
   Bfn.  Coefficient  Atom+Function         Bfn.  Coefficient  Atom+Function  
  ----- ------------  ---------------      ----- ------------  ---------------
    10      4.625211   1 C  s                29     -3.717388   2 C  s         
   105     -3.717345   6 C  s                12      2.809944   1 C  py        
    30     -1.974738   2 C  px              106      1.974603   6 C  px        
   117      1.349935   7 H  s                48      0.994739   3 N  s         
    86      0.994737   5 N  s                50     -0.787600   3 N  py        

 Vector   34  Occ=0.000000D+00  E= 3.442403D-01
              MO Center= -2.5D-05, -3.6D-02, -3.2D-04, r^2= 6.4D+00
   Bfn.  Coefficient  Atom+Function         Bfn.  Coefficient  Atom+Function  
  ----- ------------  ---------------      ----- ------------  ---------------
    11      2.703603   1 C  px               31     -2.377444   2 C  py        
   107      2.376973   6 C  py               68     -1.918463   4 C  px        
    30      1.450062   2 C  px              106      1.450768   6 C  px        
    50     -1.003985   3 N  py               88      1.004187   5 N  py        
    49     -0.597815   3 N  px               87     -0.597477   5 N  px        

 Vector   35  Occ=0.000000D+00  E= 3.547337D-01
              MO Center= -1.4D-05, -1.5D-01, -1.4D-04, r^2= 4.7D+00
   Bfn.  Coefficient  Atom+Function         Bfn.  Coefficient  Atom+Function  
  ----- ------------  ---------------      ----- ------------  ---------------
    10      3.400670   1 C  s                67     -3.254083   4 C  s         
    30     -1.109336   2 C  px               31      1.109127   2 C  py        
   106      1.109716   6 C  px              107      1.108806   6 C  py        
    12      0.868365   1 C  py               49      0.837295   3 N  px        
    87     -0.837055   5 N  px               50      0.779585   3 N  py        

 Vector   36  Occ=0.000000D+00  E= 3.848133D-01
              MO Center= -5.6D-05, -3.8D-01,  8.0D-04, r^2= 3.9D+00
   Bfn.  Coefficient  Atom+Function         Bfn.  Coefficient  Atom+Function  
  ----- ------------  ---------------      ----- ------------  ---------------
    70      0.522291   4 C  pz               32      0.518706   2 C  pz        
   108      0.518703   6 C  pz               28     -0.450193   2 C  pz        
   104     -0.450191   6 C  pz                9     -0.412743   1 C  pz        
    66     -0.406870   4 C  pz               13      0.349200   1 C  pz        
    24     -0.118773   2 C  pz              100     -0.118772   6 C  pz        

 Vector   37  Occ=0.000000D+00  E= 4.011652D-01
              MO Center= -1.4D-04, -8.6D-01,  8.3D-04, r^2= 4.1D+00
   Bfn.  Coefficient  Atom+Function         Bfn.  Coefficient  Atom+Function  
  ----- ------------  ---------------      ----- ------------  ---------------
    29      2.557163   2 C  s               105     -2.557107   6 C  s         
    11      1.224571   1 C  px               30      1.015671   2 C  px        
   106      1.015838   6 C  px               68      0.766433   4 C  px        
   119     -0.725247   8 H  s               125      0.725261  10 H  s         
    31     -0.713962   2 C  py              107      0.713605   6 C  py        

 Vector   38  Occ=0.000000D+00  E= 4.187600D-01
              MO Center=  2.1D-04,  1.2D+00,  4.9D-04, r^2= 4.2D+00
   Bfn.  Coefficient  Atom+Function         Bfn.  Coefficient  Atom+Function  
  ----- ------------  ---------------      ----- ------------  ---------------
    29     -1.455040   2 C  s               105     -1.455019   6 C  s         
   122     -1.449553   9 H  s                10      1.435545   1 C  s         
    12      0.763468   1 C  py              123      0.738567   9 H  s         
    30     -0.618082   2 C  px              106      0.618001   6 C  px        
    69      0.553724   4 C  py              117      0.442080   7 H  s         

 Vector   39  Occ=0.000000D+00  E= 4.372287D-01
              MO Center= -1.3D-04, -8.9D-01, -2.1D-04, r^2= 4.5D+00
   Bfn.  Coefficient  Atom+Function         Bfn.  Coefficient  Atom+Function  
  ----- ------------  ---------------      ----- ------------  ---------------
    10      1.211020   1 C  s                67      0.851921   4 C  s         
   119      0.728634   8 H  s               125      0.728630  10 H  s         
   116     -0.659689   7 H  s               120     -0.589331   8 H  s         
   126     -0.589318  10 H  s                25     -0.422049   2 C  s         
   101     -0.422047   6 C  s                63     -0.395041   4 C  s         

 Vector   40  Occ=0.000000D+00  E= 4.468221D-01
              MO Center=  9.2D-05,  5.5D-01,  2.3D-04, r^2= 4.4D+00
   Bfn.  Coefficient  Atom+Function         Bfn.  Coefficient  Atom+Function  
  ----- ------------  ---------------      ----- ------------  ---------------
    70      1.190998   4 C  pz               66     -0.726699   4 C  pz        
    13     -0.698699   1 C  pz                9      0.461023   1 C  pz        
    62     -0.179416   4 C  pz               28      0.121037   2 C  pz        
   104      0.121030   6 C  pz                5      0.109192   1 C  pz        
    51     -0.100588   3 N  pz               89     -0.100589   5 N  pz        

 Vector   41  Occ=0.000000D+00  E= 4.562259D-01
              MO Center= -9.7D-05, -7.0D-01, -3.8D-04, r^2= 4.4D+00
   Bfn.  Coefficient  Atom+Function         Bfn.  Coefficient  Atom+Function  
  ----- ------------  ---------------      ----- ------------  ---------------
    32      1.029403   2 C  pz              108     -1.029407   6 C  pz        
    28     -0.626056   2 C  pz              104      0.626059   6 C  pz        
    24     -0.153584   2 C  pz              100      0.153585   6 C  pz        
    16      0.079432   1 C  dxz              51     -0.078304   3 N  pz        
    89      0.078303   5 N  pz               35     -0.071060   2 C  dxz       

 Vector   42  Occ=0.000000D+00  E= 5.123662D-01
              MO Center=  8.7D-05,  5.1D-01, -3.6D-04, r^2= 3.8D+00
   Bfn.  Coefficient  Atom+Function         Bfn.  Coefficient  Atom+Function  
  ----- ------------  ---------------      ----- ------------  ---------------
    31     -1.120191   2 C  py              107      1.120159   6 C  py        
    48      1.068893   3 N  s                86     -1.068884   5 N  s         
    11      1.057231   1 C  px               68      0.970936   4 C  px        
    25      0.536644   2 C  s               101     -0.536650   6 C  s         
    64     -0.510731   4 C  px               29     -0.456563   2 C  s         

 Vector   43  Occ=0.000000D+00  E= 5.343522D-01
              MO Center= -1.3D-04, -8.6D-01,  8.4D-05, r^2= 4.6D+00
   Bfn.  Coefficient  Atom+Function         Bfn.  Coefficient  Atom+Function  
  ----- ------------  ---------------      ----- ------------  ---------------
    13      1.665638   1 C  pz               32     -1.121288   2 C  pz        
   108     -1.121286   6 C  pz                9     -0.660498   1 C  pz        
    70      0.526368   4 C  pz               28      0.422189   2 C  pz        
   104      0.422188   6 C  pz               66     -0.273548   4 C  pz        
     5     -0.175455   1 C  pz               24      0.113687   2 C  pz        

 Vector   44  Occ=0.000000D+00  E= 5.520485D-01
              MO Center= -1.7D-04, -9.8D-01,  3.2D-04, r^2= 5.3D+00
   Bfn.  Coefficient  Atom+Function         Bfn.  Coefficient  Atom+Function  
  ----- ------------  ---------------      ----- ------------  ---------------
    11      3.309426   1 C  px               30      1.630108   2 C  px        
   106      1.630397   6 C  px               31     -1.223952   2 C  py        
   107      1.223399   6 C  py               68     -1.163759   4 C  px        
   120      1.146187   8 H  s               126     -1.146141  10 H  s         
    29      0.988356   2 C  s               105     -0.988322   6 C  s         

 Vector   45  Occ=0.000000D+00  E= 5.596269D-01
              MO Center= -1.7D-05, -2.3D-01,  5.4D-04, r^2= 4.8D+00
   Bfn.  Coefficient  Atom+Function         Bfn.  Coefficient  Atom+Function  
  ----- ------------  ---------------      ----- ------------  ---------------
    67      1.548725   4 C  s                48     -1.181873   3 N  s         
    86     -1.181870   5 N  s                10      1.031884   1 C  s         
    31      0.984311   2 C  py              107      0.984049   6 C  py        
    30     -0.937755   2 C  px              106      0.938130   6 C  px        
   117      0.901334   7 H  s                63     -0.773884   4 C  s         

 Vector   46  Occ=0.000000D+00  E= 5.956619D-01
              MO Center=  8.9D-05,  3.5D-01,  4.7D-04, r^2= 7.6D+00
   Bfn.  Coefficient  Atom+Function         Bfn.  Coefficient  Atom+Function  
  ----- ------------  ---------------      ----- ------------  ---------------
    10      2.448359   1 C  s                69     -2.092841   4 C  py        
   123      1.684984   9 H  s                67     -1.662666   4 C  s         
    30     -1.611706   2 C  px              106      1.611663   6 C  px        
   120     -1.058751   8 H  s               126     -1.058795  10 H  s         
    63      0.600370   4 C  s                65      0.588796   4 C  py        

 Vector   47  Occ=0.000000D+00  E= 6.376128D-01
              MO Center= -1.5D-04, -9.8D-01,  1.3D-03, r^2= 5.1D+00
   Bfn.  Coefficient  Atom+Function         Bfn.  Coefficient  Atom+Function  
  ----- ------------  ---------------      ----- ------------  ---------------
    12      3.401212   1 C  py              117      1.968098   7 H  s         
    67     -1.530271   4 C  s                29     -1.321082   2 C  s         
   105     -1.321068   6 C  s                69     -1.209841   4 C  py        
    30     -1.022975   2 C  px              106      1.022729   6 C  px        
   123      0.975608   9 H  s                 8     -0.866528   1 C  py        

 Vector   48  Occ=0.000000D+00  E= 6.448367D-01
              MO Center= -5.0D-05, -3.6D-01, -2.6D-04, r^2= 5.6D+00
   Bfn.  Coefficient  Atom+Function         Bfn.  Coefficient  Atom+Function  
  ----- ------------  ---------------      ----- ------------  ---------------
    29      3.259108   2 C  s               105     -3.259067   6 C  s         
    11      2.859591   1 C  px               31     -1.977801   2 C  py        
   107      1.978002   6 C  py              120     -1.067314   8 H  s         
   126      1.067312  10 H  s                25     -0.846445   2 C  s         
   101      0.846452   6 C  s                30     -0.630273   2 C  px        

 Vector   49  Occ=0.000000D+00  E= 6.842420D-01
              MO Center=  1.3D-04,  7.0D-01, -7.5D-05, r^2= 4.8D+00
   Bfn.  Coefficient  Atom+Function         Bfn.  Coefficient  Atom+Function  
  ----- ------------  ---------------      ----- ------------  ---------------
    12      1.226761   1 C  py               30     -0.964663   2 C  px        
   106      0.964469   6 C  px               50     -0.949487   3 N  py        
    88     -0.949181   5 N  py               49      0.894462   3 N  px        
    87     -0.894785   5 N  px               63     -0.658274   4 C  s         
    31     -0.594240   2 C  py              107     -0.594496   6 C  py        

 Vector   50  Occ=0.000000D+00  E= 6.899388D-01
              MO Center=  3.2D-05,  1.4D-01, -8.8D-05, r^2= 6.0D+00
   Bfn.  Coefficient  Atom+Function         Bfn.  Coefficient  Atom+Function  
  ----- ------------  ---------------      ----- ------------  ---------------
    30      1.635508   2 C  px              106     -1.635214   6 C  px        
    67     -1.546910   4 C  s                69     -1.428267   4 C  py        
    12     -1.387075   1 C  py              123      1.158488   9 H  s         
   120      1.146428   8 H  s               126      1.146433  10 H  s         
    31      0.969921   2 C  py              107      0.970431   6 C  py        

 Vector   51  Occ=0.000000D+00  E= 6.923235D-01
              MO Center= -2.9D-05, -1.3D-01,  7.1D-05, r^2= 4.3D+00
   Bfn.  Coefficient  Atom+Function         Bfn.  Coefficient  Atom+Function  
  ----- ------------  ---------------      ----- ------------  ---------------
    29      1.866189   2 C  s               105     -1.866240   6 C  s         
    11      1.354568   1 C  px               49      0.932762   3 N  px        
    87      0.932669   5 N  px                7     -0.572070   1 C  px        
    30      0.520121   2 C  px              106      0.520149   6 C  px        
    64      0.478602   4 C  px               25     -0.455037   2 C  s         

 Vector   52  Occ=0.000000D+00  E= 7.046359D-01
              MO Center=  1.3D-04,  7.3D-01, -2.4D-04, r^2= 3.8D+00
   Bfn.  Coefficient  Atom+Function         Bfn.  Coefficient  Atom+Function  
  ----- ------------  ---------------      ----- ------------  ---------------
    51      1.103205   3 N  pz               89     -1.103207   5 N  pz        
    47     -0.613801   3 N  pz               85      0.613802   5 N  pz        
    32     -0.492203   2 C  pz              108      0.492202   6 C  pz        
    43     -0.169475   3 N  pz               81      0.169475   5 N  pz        
    73      0.114611   4 C  dxz              28      0.076629   2 C  pz        

 Vector   53  Occ=0.000000D+00  E= 7.653435D-01
              MO Center= -4.4D-05, -6.3D-01,  2.6D-04, r^2= 4.6D+00
   Bfn.  Coefficient  Atom+Function         Bfn.  Coefficient  Atom+Function  
  ----- ------------  ---------------      ----- ------------  ---------------
    10      8.482590   1 C  s                29     -4.296290   2 C  s         
   105     -4.296476   6 C  s                69      1.644185   4 C  py        
    30     -1.552145   2 C  px              106      1.552601   6 C  px        
    12      1.541203   1 C  py                6     -1.432266   1 C  s         
    31      1.387221   2 C  py              107      1.386834   6 C  py        

 Vector   54  Occ=0.000000D+00  E= 7.814062D-01
              MO Center= -6.2D-05, -1.6D-01,  2.3D-04, r^2= 5.3D+00
   Bfn.  Coefficient  Atom+Function         Bfn.  Coefficient  Atom+Function  
  ----- ------------  ---------------      ----- ------------  ---------------
    29      4.509514   2 C  s               105     -4.509226   6 C  s         
    11      4.337297   1 C  px               31     -2.293333   2 C  py        
   107      2.292999   6 C  py               49     -0.900638   3 N  px        
    87     -0.900866   5 N  px               50      0.879148   3 N  py        
    88     -0.878823   5 N  py               30      0.812289   2 C  px        

 Vector   55  Occ=0.000000D+00  E= 7.923819D-01
              MO Center= -4.0D-05, -2.3D-01, -1.4D-02, r^2= 4.7D+00
   Bfn.  Coefficient  Atom+Function         Bfn.  Coefficient  Atom+Function  
  ----- ------------  ---------------      ----- ------------  ---------------
    12      3.608005   1 C  py               69      2.832484   4 C  py        
   116      1.553795   7 H  s                67     -1.302763   4 C  s         
   122     -1.068943   9 H  s                48      1.045379   3 N  s         
    86      1.045381   5 N  s               117      0.995593   7 H  s         
   123     -0.745863   9 H  s                25     -0.608506   2 C  s         

 Vector   56  Occ=0.000000D+00  E= 7.993707D-01
              MO Center=  1.1D-04,  6.9D-01,  1.3D-02, r^2= 4.4D+00
   Bfn.  Coefficient  Atom+Function         Bfn.  Coefficient  Atom+Function  
  ----- ------------  ---------------      ----- ------------  ---------------
    51      1.504352   3 N  pz               89      1.504347   5 N  pz        
    70     -1.057243   4 C  pz               32     -0.775017   2 C  pz        
   108     -0.775014   6 C  pz               13      0.680423   1 C  pz        
    47     -0.627731   3 N  pz               85     -0.627729   5 N  pz        
    43     -0.162807   3 N  pz               81     -0.162807   5 N  pz        

 Vector   57  Occ=0.000000D+00  E= 8.380220D-01
              MO Center= -1.7D-06, -4.7D-02,  1.1D-03, r^2= 5.5D+00
   Bfn.  Coefficient  Atom+Function         Bfn.  Coefficient  Atom+Function  
  ----- ------------  ---------------      ----- ------------  ---------------
    30      3.712888   2 C  px              106      3.712332   6 C  px        
    31      1.763213   2 C  py              107     -1.764366   6 C  py        
    29      1.474028   2 C  s               105     -1.474036   6 C  s         
   119      1.419387   8 H  s               125     -1.419384  10 H  s         
    68      1.304121   4 C  px              120      1.004177   8 H  s         

 Vector   58  Occ=0.000000D+00  E= 8.984515D-01
              MO Center=  2.5D-05,  6.2D-02, -5.4D-04, r^2= 5.4D+00
   Bfn.  Coefficient  Atom+Function         Bfn.  Coefficient  Atom+Function  
  ----- ------------  ---------------      ----- ------------  ---------------
    12      6.366973   1 C  py               29     -6.105751   2 C  s         
   105     -6.105883   6 C  s                67      5.818940   4 C  s         
    10      5.491736   1 C  s                31     -2.829262   2 C  py        
   107     -2.830028   6 C  py               30     -2.506016   2 C  px        
   106      2.505137   6 C  px               69     -2.167491   4 C  py        

 Vector   59  Occ=0.000000D+00  E= 1.002651D+00
              MO Center=  4.5D-05,  4.8D-01, -6.4D-04, r^2= 5.4D+00
   Bfn.  Coefficient  Atom+Function         Bfn.  Coefficient  Atom+Function  
  ----- ------------  ---------------      ----- ------------  ---------------
    68      3.647282   4 C  px               50      3.589438   3 N  py        
    88     -3.589944   5 N  py               31      3.120144   2 C  py        
   107     -3.119588   6 C  py               11     -2.832777   1 C  px        
    49      1.792476   3 N  px               87      1.791245   5 N  px        
    30     -1.683235   2 C  px              106     -1.684101   6 C  px        

 Vector   60  Occ=0.000000D+00  E= 1.028879D+00
              MO Center=  1.1D-04,  4.2D-01, -9.5D-04, r^2= 5.6D+00
   Bfn.  Coefficient  Atom+Function         Bfn.  Coefficient  Atom+Function  
  ----- ------------  ---------------      ----- ------------  ---------------
    10      9.109267   1 C  s                12      5.264285   1 C  py        
    30     -4.935043   2 C  px              106      4.934949   6 C  px        
    29     -4.158856   2 C  s               105     -4.158900   6 C  s         
    69     -4.011071   4 C  py               50      1.768198   3 N  py        
    88      1.768713   5 N  py              122      1.542113   9 H  s         

 Vector   61  Occ=0.000000D+00  E= 1.046419D+00
              MO Center= -7.3D-05, -5.8D-01,  4.3D-04, r^2= 2.3D+00
   Bfn.  Coefficient  Atom+Function         Bfn.  Coefficient  Atom+Function  
  ----- ------------  ---------------      ----- ------------  ---------------
    18      0.883534   1 C  dyz              35      0.705177   2 C  dxz       
   111     -0.705103   6 C  dxz              75     -0.571475   4 C  dyz       
    37      0.320019   2 C  dyz             113      0.320209   6 C  dyz       
    54      0.154591   3 N  dxz              92     -0.154621   5 N  dxz       
     9     -0.144179   1 C  pz               51     -0.117438   3 N  pz        

 Vector   62  Occ=0.000000D+00  E= 1.057737D+00
              MO Center= -7.3D-05, -4.3D-01, -1.2D-05, r^2= 2.3D+00
   Bfn.  Coefficient  Atom+Function         Bfn.  Coefficient  Atom+Function  
  ----- ------------  ---------------      ----- ------------  ---------------
    16      0.768562   1 C  dxz              37      0.573751   2 C  dyz       
   113     -0.573633   6 C  dyz              73      0.545989   4 C  dxz       
    35     -0.433819   2 C  dxz             111     -0.433959   6 C  dxz       
    56     -0.203488   3 N  dyz              94      0.203531   5 N  dyz       
    54     -0.116674   3 N  dxz              92     -0.116598   5 N  dxz       

 Vector   63  Occ=0.000000D+00  E= 1.117210D+00
              MO Center=  5.9D-05,  1.7D-01, -5.0D-04, r^2= 3.8D+00
   Bfn.  Coefficient  Atom+Function         Bfn.  Coefficient  Atom+Function  
  ----- ------------  ---------------      ----- ------------  ---------------
    10      6.428735   1 C  s                48      6.237226   3 N  s         
    86      6.237401   5 N  s                29     -5.255929   2 C  s         
   105     -5.255970   6 C  s                12      3.928297   1 C  py        
    67     -2.948199   4 C  s                30     -2.679484   2 C  px        
   106      2.679059   6 C  px               69      1.971791   4 C  py        

 Vector   64  Occ=0.000000D+00  E= 1.127800D+00
              MO Center=  1.1D-04,  7.6D-01,  1.7D-04, r^2= 4.0D+00
   Bfn.  Coefficient  Atom+Function         Bfn.  Coefficient  Atom+Function  
  ----- ------------  ---------------      ----- ------------  ---------------
    48      5.850587   3 N  s                86     -5.850371   5 N  s         
    68      2.533938   4 C  px               31     -1.893909   2 C  py        
   107      1.894346   6 C  py               30     -1.575940   2 C  px        
   106     -1.575257   6 C  px               49      1.527916   3 N  px        
    87      1.527826   5 N  px               44     -1.355933   3 N  s         

 Vector   65  Occ=0.000000D+00  E= 1.267114D+00
              MO Center= -1.9D-05, -1.9D-01, -4.0D-04, r^2= 2.5D+00
   Bfn.  Coefficient  Atom+Function         Bfn.  Coefficient  Atom+Function  
  ----- ------------  ---------------      ----- ------------  ---------------
    35      0.824267   2 C  dxz             111      0.824125   6 C  dxz       
    73      0.759934   4 C  dxz              37      0.467078   2 C  dyz       
   113     -0.467338   6 C  dyz              16     -0.394445   1 C  dxz       
    56     -0.240772   3 N  dyz              94      0.240775   5 N  dyz       
    28     -0.108763   2 C  pz              104      0.108765   6 C  pz        

 Vector   66  Occ=0.000000D+00  E= 1.269683D+00
              MO Center=  1.2D-04,  7.2D-01,  2.1D-04, r^2= 2.0D+00
   Bfn.  Coefficient  Atom+Function         Bfn.  Coefficient  Atom+Function  
  ----- ------------  ---------------      ----- ------------  ---------------
    75      1.446504   4 C  dyz              18      0.671285   1 C  dyz       
    70     -0.340689   4 C  pz               54     -0.244429   3 N  dxz       
    92      0.244471   5 N  dxz              51      0.193484   3 N  pz        
    89      0.193482   5 N  pz               35      0.183109   2 C  dxz       
   111     -0.183079   6 C  dxz              13      0.151509   1 C  pz        

 Vector   67  Occ=0.000000D+00  E= 1.295436D+00
              MO Center= -1.9D-05, -1.6D-01, -3.7D-04, r^2= 4.0D+00
   Bfn.  Coefficient  Atom+Function         Bfn.  Coefficient  Atom+Function  
  ----- ------------  ---------------      ----- ------------  ---------------
    48     -3.180140   3 N  s                86     -3.180122   5 N  s         
    29      2.959870   2 C  s               105      2.959903   6 C  s         
    12     -2.030044   1 C  py               67      1.854225   4 C  s         
    10     -1.564389   1 C  s               116     -0.978935   7 H  s         
    31      0.939214   2 C  py              107      0.939322   6 C  py        

 Vector   68  Occ=0.000000D+00  E= 1.341477D+00
              MO Center= -3.4D-05, -3.0D-01,  6.9D-04, r^2= 2.6D+00
   Bfn.  Coefficient  Atom+Function         Bfn.  Coefficient  Atom+Function  
  ----- ------------  ---------------      ----- ------------  ---------------
    37      1.048383   2 C  dyz             113      1.048374   6 C  dyz       
    18     -0.372907   1 C  dyz              75      0.360082   4 C  dyz       
    56     -0.344510   3 N  dyz              94     -0.344522   5 N  dyz       
    51     -0.224104   3 N  pz               89     -0.224110   5 N  pz        
     9      0.121075   1 C  pz               70      0.117743   4 C  pz        

 Vector   69  Occ=0.000000D+00  E= 1.376042D+00
              MO Center=  6.8D-05,  4.2D-01, -4.6D-05, r^2= 2.5D+00
   Bfn.  Coefficient  Atom+Function         Bfn.  Coefficient  Atom+Function  
  ----- ------------  ---------------      ----- ------------  ---------------
    73      1.123847   4 C  dxz              37     -0.569202   2 C  dyz       
   113      0.569316   6 C  dyz              16     -0.514443   1 C  dxz       
    54     -0.420472   3 N  dxz              92     -0.420484   5 N  dxz       
    35     -0.400203   2 C  dxz             111     -0.400022   6 C  dxz       
    51      0.284771   3 N  pz               89     -0.284767   5 N  pz        

 Vector   70  Occ=0.000000D+00  E= 1.500063D+00
              MO Center=  8.2D-05,  4.3D-01,  3.8D-04, r^2= 3.7D+00
   Bfn.  Coefficient  Atom+Function         Bfn.  Coefficient  Atom+Function  
  ----- ------------  ---------------      ----- ------------  ---------------
   122      1.410786   9 H  s               116     -1.021572   7 H  s         
    67     -0.870378   4 C  s                12     -0.841867   1 C  py        
    74     -0.805258   4 C  dyy              29      0.792413   2 C  s         
   105      0.792450   6 C  s                17      0.541589   1 C  dyy       
    69     -0.529675   4 C  py               76      0.488300   4 C  dzz       

 Vector   71  Occ=0.000000D+00  E= 1.529087D+00
              MO Center= -1.0D-04, -6.8D-01, -6.6D-05, r^2= 3.4D+00
   Bfn.  Coefficient  Atom+Function         Bfn.  Coefficient  Atom+Function  
  ----- ------------  ---------------      ----- ------------  ---------------
   119     -1.245598   8 H  s               125      1.245610  10 H  s         
    29      1.156700   2 C  s               105     -1.156664   6 C  s         
    33      0.586087   2 C  dxx             109     -0.585939   6 C  dxx       
    31     -0.489895   2 C  py              107      0.490006   6 C  py        
    15     -0.465475   1 C  dxy              34      0.455524   2 C  dxy       

 Vector   72  Occ=0.000000D+00  E= 1.557644D+00
              MO Center= -4.5D-05, -3.8D-01,  2.0D-04, r^2= 2.8D+00
   Bfn.  Coefficient  Atom+Function         Bfn.  Coefficient  Atom+Function  
  ----- ------------  ---------------      ----- ------------  ---------------
    10      2.199456   1 C  s                12      1.801813   1 C  py        
    29     -1.283396   2 C  s               105     -1.283404   6 C  s         
    48      1.255509   3 N  s                86      1.255531   5 N  s         
    67     -0.733830   4 C  s                 6     -0.658108   1 C  s         
    19     -0.611833   1 C  dzz              34     -0.504278   2 C  dxy       

 Vector   73  Occ=0.000000D+00  E= 1.569395D+00
              MO Center= -8.8D-05, -5.9D-01,  3.1D-04, r^2= 2.9D+00
   Bfn.  Coefficient  Atom+Function         Bfn.  Coefficient  Atom+Function  
  ----- ------------  ---------------      ----- ------------  ---------------
    11      1.527598   1 C  px               15      0.976984   1 C  dxy       
    68     -0.978583   4 C  px               50     -0.932437   3 N  py        
    88      0.932551   5 N  py               34      0.831133   2 C  dxy       
   110      0.830867   6 C  dxy              31     -0.537513   2 C  py        
   107      0.537514   6 C  py               29      0.532570   2 C  s         

 Vector   74  Occ=0.000000D+00  E= 1.715133D+00
              MO Center= -7.1D-05, -4.6D-01,  4.9D-04, r^2= 4.0D+00
   Bfn.  Coefficient  Atom+Function         Bfn.  Coefficient  Atom+Function  
  ----- ------------  ---------------      ----- ------------  ---------------
   116      1.356322   7 H  s                10     -0.957964   1 C  s         
    69      0.795907   4 C  py               67     -0.776782   4 C  s         
    34      0.741811   2 C  dxy             110     -0.741582   6 C  dxy       
    12      0.642800   1 C  py              119     -0.618632   8 H  s         
   125     -0.618626  10 H  s                17     -0.515045   1 C  dyy       

 Vector   75  Occ=0.000000D+00  E= 1.762892D+00
              MO Center=  1.2D-04,  7.2D-01, -1.7D-04, r^2= 2.6D+00
   Bfn.  Coefficient  Atom+Function         Bfn.  Coefficient  Atom+Function  
  ----- ------------  ---------------      ----- ------------  ---------------
    72      1.579604   4 C  dxy              30     -1.159788   2 C  px        
   106     -1.159932   6 C  px               29     -0.721960   2 C  s         
   105      0.721992   6 C  s                49      0.696165   3 N  px        
    50      0.699145   3 N  py               87      0.695942   5 N  px        
    88     -0.699362   5 N  py               11     -0.641361   1 C  px        

 Vector   76  Occ=0.000000D+00  E= 1.826702D+00
              MO Center= -1.2D-04, -8.4D-01,  3.8D-04, r^2= 2.2D+00
   Bfn.  Coefficient  Atom+Function         Bfn.  Coefficient  Atom+Function  
  ----- ------------  ---------------      ----- ------------  ---------------
    18      1.469321   1 C  dyz              35     -1.102808   2 C  dxz       
   111      1.102890   6 C  dxz              13      0.674097   1 C  pz        
    32     -0.426653   2 C  pz              108     -0.426655   6 C  pz        
    75     -0.394349   4 C  dyz              37      0.233653   2 C  dyz       
   113      0.233302   6 C  dyz               5      0.201415   1 C  pz        

 Vector   77  Occ=0.000000D+00  E= 1.859819D+00
              MO Center=  7.2D-05,  4.1D-01,  1.9D-04, r^2= 2.8D+00
   Bfn.  Coefficient  Atom+Function         Bfn.  Coefficient  Atom+Function  
  ----- ------------  ---------------      ----- ------------  ---------------
    67      1.873213   4 C  s                69     -1.307995   4 C  py        
    76     -0.920237   4 C  dzz              71      0.764662   4 C  dxx       
    19      0.701415   1 C  dzz              29     -0.651551   2 C  s         
   105     -0.651587   6 C  s                30     -0.604055   2 C  px        
   106      0.603884   6 C  px               31     -0.579970   2 C  py        

 Vector   78  Occ=0.000000D+00  E= 1.888314D+00
              MO Center= -4.1D-05, -3.0D-01,  5.2D-04, r^2= 2.8D+00
   Bfn.  Coefficient  Atom+Function         Bfn.  Coefficient  Atom+Function  
  ----- ------------  ---------------      ----- ------------  ---------------
    29      2.014130   2 C  s               105     -2.014161   6 C  s         
    30      0.958921   2 C  px              106      0.958718   6 C  px        
    38     -0.771991   2 C  dzz             114      0.771990   6 C  dzz       
    72      0.724923   4 C  dxy              31      0.686575   2 C  py        
   107     -0.686892   6 C  py               34     -0.637738   2 C  dxy       

 Vector   79  Occ=0.000000D+00  E= 1.949607D+00
              MO Center= -1.1D-04, -6.7D-01, -5.9D-05, r^2= 2.4D+00
   Bfn.  Coefficient  Atom+Function         Bfn.  Coefficient  Atom+Function  
  ----- ------------  ---------------      ----- ------------  ---------------
    16      1.639529   1 C  dxz              35      0.841296   2 C  dxz       
   111      0.841452   6 C  dxz              37     -0.512430   2 C  dyz       
   113      0.512154   6 C  dyz              73      0.447554   4 C  dxz       
    56      0.413348   3 N  dyz              94     -0.413327   5 N  dyz       
    32      0.236812   2 C  pz              108     -0.236809   6 C  pz        

 Vector   80  Occ=0.000000D+00  E= 1.956268D+00
              MO Center= -1.3D-04, -8.9D-01,  3.1D-04, r^2= 3.1D+00
   Bfn.  Coefficient  Atom+Function         Bfn.  Coefficient  Atom+Function  
  ----- ------------  ---------------      ----- ------------  ---------------
    10      2.310470   1 C  s               116     -1.103637   7 H  s         
    29     -1.079975   2 C  s               105     -1.079963   6 C  s         
    31      0.924336   2 C  py              107      0.924227   6 C  py        
   119      0.815714   8 H  s               125      0.815725  10 H  s         
    33     -0.751011   2 C  dxx             109     -0.751172   6 C  dxx       

 Vector   81  Occ=0.000000D+00  E= 2.134952D+00
              MO Center=  5.6D-05,  4.4D-01,  4.2D-05, r^2= 4.7D+00
   Bfn.  Coefficient  Atom+Function         Bfn.  Coefficient  Atom+Function  
  ----- ------------  ---------------      ----- ------------  ---------------
   122      1.359407   9 H  s                12     -0.800064   1 C  py        
   121     -0.718246   9 H  s               119      0.699181   8 H  s         
   125      0.699152  10 H  s                69     -0.610801   4 C  py        
   118     -0.429228   8 H  s               124     -0.429216  10 H  s         
   117     -0.409894   7 H  s                61      0.407444   4 C  py        

 Vector   82  Occ=0.000000D+00  E= 2.220063D+00
              MO Center= -4.4D-05, -3.9D-01, -1.8D-05, r^2= 3.8D+00
   Bfn.  Coefficient  Atom+Function         Bfn.  Coefficient  Atom+Function  
  ----- ------------  ---------------      ----- ------------  ---------------
    11      1.498228   1 C  px              119     -1.136240   8 H  s         
   125      1.136247  10 H  s                15      0.877414   1 C  dxy       
    31     -0.836621   2 C  py              107      0.836664   6 C  py        
    29      0.757776   2 C  s               105     -0.757685   6 C  s         
   118      0.530912   8 H  s               124     -0.530912  10 H  s         

 Vector   83  Occ=0.000000D+00  E= 2.235573D+00
              MO Center= -1.0D-04, -6.4D-01,  2.9D-04, r^2= 2.9D+00
   Bfn.  Coefficient  Atom+Function         Bfn.  Coefficient  Atom+Function  
  ----- ------------  ---------------      ----- ------------  ---------------
    15      1.971244   1 C  dxy              11      1.821461   1 C  px        
    29      1.444459   2 C  s               105     -1.444287   6 C  s         
    30      0.943407   2 C  px              106      0.943569   6 C  px        
    34     -0.783146   2 C  dxy             110     -0.782495   6 C  dxy       
    31     -0.769464   2 C  py              107      0.769196   6 C  py        

 Vector   84  Occ=0.000000D+00  E= 2.254752D+00
              MO Center=  1.3D-04,  7.7D-01, -2.0D-04, r^2= 2.1D+00
   Bfn.  Coefficient  Atom+Function         Bfn.  Coefficient  Atom+Function  
  ----- ------------  ---------------      ----- ------------  ---------------
    54      0.934911   3 N  dxz              92     -0.934737   5 N  dxz       
    75      0.621487   4 C  dyz              62     -0.598077   4 C  pz        
    56      0.504400   3 N  dyz              94      0.504711   5 N  dyz       
    70     -0.501641   4 C  pz               66      0.438176   4 C  pz        
    37      0.314224   2 C  dyz             113      0.314151   6 C  dyz       

 Vector   85  Occ=0.000000D+00  E= 2.286077D+00
              MO Center= -1.2D-04, -7.4D-01,  4.5D-04, r^2= 3.2D+00
   Bfn.  Coefficient  Atom+Function         Bfn.  Coefficient  Atom+Function  
  ----- ------------  ---------------      ----- ------------  ---------------
    10      6.380846   1 C  s                29     -4.731328   2 C  s         
   105     -4.731386   6 C  s                12      3.792958   1 C  py        
    30     -2.379906   2 C  px              106      2.379640   6 C  px        
    67      1.628202   4 C  s                69     -1.288594   4 C  py        
   116      0.994951   7 H  s                31     -0.954702   2 C  py        

 Vector   86  Occ=0.000000D+00  E= 2.294707D+00
              MO Center=  9.1D-05,  4.2D-01, -2.0D-04, r^2= 2.6D+00
   Bfn.  Coefficient  Atom+Function         Bfn.  Coefficient  Atom+Function  
  ----- ------------  ---------------      ----- ------------  ---------------
    54      0.974541   3 N  dxz              92      0.974766   5 N  dxz       
    73      0.805209   4 C  dxz              37     -0.766476   2 C  dyz       
   113      0.766490   6 C  dyz              56     -0.639628   3 N  dyz       
    94      0.639320   5 N  dyz              16      0.444339   1 C  dxz       
    51      0.366235   3 N  pz               89     -0.366243   5 N  pz        

 Vector   87  Occ=0.000000D+00  E= 2.315883D+00
              MO Center= -1.1D-04, -7.7D-01,  9.0D-04, r^2= 4.3D+00
   Bfn.  Coefficient  Atom+Function         Bfn.  Coefficient  Atom+Function  
  ----- ------------  ---------------      ----- ------------  ---------------
   116      1.401868   7 H  s               115     -0.889686   7 H  s         
   122     -0.880451   9 H  s                10      0.674985   1 C  s         
    12      0.624104   1 C  py                8      0.604551   1 C  py        
   119      0.526756   8 H  s               125      0.526776  10 H  s         
   121      0.518680   9 H  s                 4     -0.506525   1 C  py        

 Vector   88  Occ=0.000000D+00  E= 2.351319D+00
              MO Center=  1.9D-05,  1.3D-01, -2.4D-04, r^2= 2.7D+00
   Bfn.  Coefficient  Atom+Function         Bfn.  Coefficient  Atom+Function  
  ----- ------------  ---------------      ----- ------------  ---------------
    56      0.932889   3 N  dyz              94      0.932733   5 N  dyz       
    37      0.635586   2 C  dyz             113      0.635606   6 C  dyz       
    54     -0.468415   3 N  dxz              92      0.468700   5 N  dxz       
    24      0.444475   2 C  pz              100      0.444473   6 C  pz        
    75     -0.403374   4 C  dyz              51     -0.386142   3 N  pz        

 Vector   89  Occ=0.000000D+00  E= 2.576061D+00
              MO Center=  4.5D-05,  9.1D-01, -3.5D-04, r^2= 2.6D+00
   Bfn.  Coefficient  Atom+Function         Bfn.  Coefficient  Atom+Function  
  ----- ------------  ---------------      ----- ------------  ---------------
    48      1.982177   3 N  s                86      1.981935   5 N  s         
    67     -1.947887   4 C  s                29     -1.122594   2 C  s         
   105     -1.122369   6 C  s                63     -0.888659   4 C  s         
   122     -0.860214   9 H  s                76      0.834135   4 C  dzz       
    69      0.715229   4 C  py               25     -0.635578   2 C  s         

 Vector   90  Occ=0.000000D+00  E= 2.578408D+00
              MO Center=  1.3D-04,  1.1D-01, -2.6D-04, r^2= 3.5D+00
   Bfn.  Coefficient  Atom+Function         Bfn.  Coefficient  Atom+Function  
  ----- ------------  ---------------      ----- ------------  ---------------
    48     -2.027949   3 N  s                86      2.028185   5 N  s         
    29      1.863339   2 C  s               105     -1.863501   6 C  s         
    30      0.961303   2 C  px              106      0.961205   6 C  px        
    49     -0.826594   3 N  px               87     -0.826771   5 N  px        
   119      0.800027   8 H  s               125     -0.800045  10 H  s         

 Vector   91  Occ=0.000000D+00  E= 2.659097D+00
              MO Center= -9.0D-05, -5.8D-01,  1.8D-04, r^2= 2.3D+00
   Bfn.  Coefficient  Atom+Function         Bfn.  Coefficient  Atom+Function  
  ----- ------------  ---------------      ----- ------------  ---------------
     9      1.010822   1 C  pz                5     -0.884735   1 C  pz        
    56      0.594314   3 N  dyz              94      0.594252   5 N  dyz       
    28      0.538530   2 C  pz              104      0.538513   6 C  pz        
    37      0.500564   2 C  dyz             113      0.500541   6 C  dyz       
    24     -0.480158   2 C  pz              100     -0.480143   6 C  pz        

 Vector   92  Occ=0.000000D+00  E= 2.667548D+00
              MO Center= -4.0D-06, -1.1D-01,  5.5D-05, r^2= 2.7D+00
   Bfn.  Coefficient  Atom+Function         Bfn.  Coefficient  Atom+Function  
  ----- ------------  ---------------      ----- ------------  ---------------
    73     -0.901349   4 C  dxz              16      0.858737   1 C  dxz       
    28      0.716247   2 C  pz              104     -0.716264   6 C  pz        
    54     -0.705473   3 N  dxz              92     -0.705298   5 N  dxz       
    24     -0.607665   2 C  pz              100      0.607680   6 C  pz        
    56     -0.574868   3 N  dyz              94      0.575074   5 N  dyz       

 Vector   93  Occ=0.000000D+00  E= 2.762436D+00
              MO Center=  6.2D-05,  2.9D-01, -3.1D-05, r^2= 3.0D+00
   Bfn.  Coefficient  Atom+Function         Bfn.  Coefficient  Atom+Function  
  ----- ------------  ---------------      ----- ------------  ---------------
    67      1.670442   4 C  s                10     -1.045733   1 C  s         
    50     -0.971967   3 N  py               88     -0.972228   5 N  py        
    49     -0.828505   3 N  px               87      0.828200   5 N  px        
    53     -0.819263   3 N  dxy              91      0.819897   5 N  dxy       
    31     -0.763243   2 C  py              107     -0.763082   6 C  py        

 Vector   94  Occ=0.000000D+00  E= 2.792830D+00
              MO Center=  1.9D-04,  1.0D+00, -3.7D-04, r^2= 1.5D+00
   Bfn.  Coefficient  Atom+Function         Bfn.  Coefficient  Atom+Function  
  ----- ------------  ---------------      ----- ------------  ---------------
    66      1.427317   4 C  pz               62     -1.122536   4 C  pz        
    54     -0.689357   3 N  dxz              92      0.689258   5 N  dxz       
    70     -0.469154   4 C  pz               56     -0.357650   3 N  dyz       
    94     -0.357908   5 N  dyz              75     -0.309578   4 C  dyz       
    28     -0.225780   2 C  pz              104     -0.225815   6 C  pz        

 Vector   95  Occ=0.000000D+00  E= 2.800119D+00
              MO Center=  9.0D-07,  9.5D-02,  6.1D-04, r^2= 2.6D+00
   Bfn.  Coefficient  Atom+Function         Bfn.  Coefficient  Atom+Function  
  ----- ------------  ---------------      ----- ------------  ---------------
    56      0.973005   3 N  dyz              94     -0.973115   5 N  dyz       
    28      0.845053   2 C  pz              104     -0.845044   6 C  pz        
    73      0.755219   4 C  dxz              24     -0.663114   2 C  pz        
   100      0.663108   6 C  pz               37      0.444136   2 C  dyz       
   113     -0.444095   6 C  dyz              54      0.406050   3 N  dxz       

 Vector   96  Occ=0.000000D+00  E= 2.820705D+00
              MO Center=  5.1D-05,  2.1D-01, -8.8D-04, r^2= 2.7D+00
   Bfn.  Coefficient  Atom+Function         Bfn.  Coefficient  Atom+Function  
  ----- ------------  ---------------      ----- ------------  ---------------
    53      0.906013   3 N  dxy              91      0.905522   5 N  dxy       
    34      0.675448   2 C  dxy             110      0.675702   6 C  dxy       
    72      0.498894   4 C  dxy              48      0.476400   3 N  s         
    86     -0.476389   5 N  s                55      0.421941   3 N  dyy       
    93     -0.422257   5 N  dyy             119      0.374758   8 H  s         

 Vector   97  Occ=0.000000D+00  E= 2.871322D+00
              MO Center=  1.3D-04,  5.8D-01, -2.4D-04, r^2= 2.6D+00
   Bfn.  Coefficient  Atom+Function         Bfn.  Coefficient  Atom+Function  
  ----- ------------  ---------------      ----- ------------  ---------------
    68      1.214964   4 C  px               50      1.059765   3 N  py        
    88     -1.059895   5 N  py               31      1.030448   2 C  py        
   107     -1.030444   6 C  py               53      0.787469   3 N  dxy       
    91      0.787971   5 N  dxy              11     -0.725633   1 C  px        
    60      0.665913   4 C  px               55     -0.433104   3 N  dyy       

 Vector   98  Occ=0.000000D+00  E= 2.890507D+00
              MO Center=  2.4D-06,  1.9D-01,  2.5D-04, r^2= 3.3D+00
   Bfn.  Coefficient  Atom+Function         Bfn.  Coefficient  Atom+Function  
  ----- ------------  ---------------      ----- ------------  ---------------
    10      2.314441   1 C  s                29     -1.798831   2 C  s         
   105     -1.798827   6 C  s                12      1.301573   1 C  py        
    67      1.125630   4 C  s                69     -0.966783   4 C  py        
    74      0.835498   4 C  dyy             122      0.798487   9 H  s         
    30     -0.777920   2 C  px              106      0.777761   6 C  px        

 Vector   99  Occ=0.000000D+00  E= 2.919739D+00
              MO Center= -1.3D-04, -8.2D-01,  1.3D-04, r^2= 1.8D+00
   Bfn.  Coefficient  Atom+Function         Bfn.  Coefficient  Atom+Function  
  ----- ------------  ---------------      ----- ------------  ---------------
     9      1.248636   1 C  pz                5     -0.917975   1 C  pz        
    28     -0.869913   2 C  pz              104     -0.869908   6 C  pz        
    24      0.632916   2 C  pz              100      0.632913   6 C  pz        
    13     -0.579800   1 C  pz               18      0.447105   1 C  dyz       
    35     -0.406015   2 C  dxz             111      0.406011   6 C  dxz       

 Vector  100  Occ=0.000000D+00  E= 2.978002D+00
              MO Center= -1.0D-04, -5.8D-01,  6.8D-04, r^2= 2.8D+00
   Bfn.  Coefficient  Atom+Function         Bfn.  Coefficient  Atom+Function  
  ----- ------------  ---------------      ----- ------------  ---------------
    10      1.789188   1 C  s                67     -1.381039   4 C  s         
     6      1.333418   1 C  s                17     -1.063352   1 C  dyy       
    14     -0.979908   1 C  dxx              19     -0.982164   1 C  dzz       
    25      0.890497   2 C  s               101      0.890471   6 C  s         
    63     -0.867038   4 C  s                71      0.713969   4 C  dxx       

 Vector  101  Occ=0.000000D+00  E= 3.023337D+00
              MO Center= -1.0D-04, -7.8D-01,  2.8D-05, r^2= 2.4D+00
   Bfn.  Coefficient  Atom+Function         Bfn.  Coefficient  Atom+Function  
  ----- ------------  ---------------      ----- ------------  ---------------
    29      1.607308   2 C  s               105     -1.607288   6 C  s         
    25      1.310576   2 C  s               101     -1.310596   6 C  s         
    36     -1.151011   2 C  dyy             112      1.151011   6 C  dyy       
    33     -1.109248   2 C  dxx             109      1.109273   6 C  dxx       
    38     -0.895258   2 C  dzz             114      0.895270   6 C  dzz       

 Vector  102  Occ=0.000000D+00  E= 3.096292D+00
              MO Center=  1.3D-04,  7.4D-01,  1.8D-04, r^2= 3.2D+00
   Bfn.  Coefficient  Atom+Function         Bfn.  Coefficient  Atom+Function  
  ----- ------------  ---------------      ----- ------------  ---------------
    10      3.926783   1 C  s                29     -2.134607   2 C  s         
   105     -2.134601   6 C  s                48      1.364512   3 N  s         
    86      1.364494   5 N  s                74     -1.334957   4 C  dyy       
    12      1.271423   1 C  py               63      1.208373   4 C  s         
    71     -1.174312   4 C  dxx              69      1.071031   4 C  py        

 Vector  103  Occ=0.000000D+00  E= 3.159254D+00
              MO Center= -1.1D-04, -7.0D-01,  2.8D-04, r^2= 3.6D+00
   Bfn.  Coefficient  Atom+Function         Bfn.  Coefficient  Atom+Function  
  ----- ------------  ---------------      ----- ------------  ---------------
    12      1.303521   1 C  py               48      1.048658   3 N  s         
    86      1.048659   5 N  s                30     -1.029569   2 C  px        
   106      1.029314   6 C  px                6     -0.811291   1 C  s         
    31     -0.811883   2 C  py              107     -0.812189   6 C  py        
    17      0.790724   1 C  dyy              33     -0.794289   2 C  dxx       

 Vector  104  Occ=0.000000D+00  E= 3.223212D+00
              MO Center= -1.1D-04, -7.9D-01,  3.6D-04, r^2= 2.6D+00
   Bfn.  Coefficient  Atom+Function         Bfn.  Coefficient  Atom+Function  
  ----- ------------  ---------------      ----- ------------  ---------------
    11      1.554660   1 C  px               31     -1.530217   2 C  py        
   107      1.530535   6 C  py               30     -1.051742   2 C  px        
   106     -1.051261   6 C  px               48      0.978593   3 N  s         
    86     -0.978600   5 N  s                 7     -0.942663   1 C  px        
    50     -0.922144   3 N  py               88      0.922160   5 N  py        

 Vector  105  Occ=0.000000D+00  E= 3.265805D+00
              MO Center= -2.0D-04, -1.2D+00,  7.6D-04, r^2= 1.6D+00
   Bfn.  Coefficient  Atom+Function         Bfn.  Coefficient  Atom+Function  
  ----- ------------  ---------------      ----- ------------  ---------------
    12      2.573451   1 C  py              116      1.179068   7 H  s         
    29     -1.133850   2 C  s               105     -1.133910   6 C  s         
     8     -1.102566   1 C  py                4      0.966379   1 C  py        
   115     -0.806758   7 H  s                31     -0.637090   2 C  py        
   107     -0.637144   6 C  py               26     -0.616228   2 C  px        

 Vector  106  Occ=0.000000D+00  E= 3.353184D+00
              MO Center=  4.2D-05,  2.0D-01, -3.5D-05, r^2= 3.1D+00
   Bfn.  Coefficient  Atom+Function         Bfn.  Coefficient  Atom+Function  
  ----- ------------  ---------------      ----- ------------  ---------------
    10      2.970168   1 C  s                12      2.123540   1 C  py        
    29     -2.069513   2 C  s               105     -2.069564   6 C  s         
    30     -1.436159   2 C  px              106      1.436027   6 C  px        
    65      1.150619   4 C  py               48      1.128315   3 N  s         
    86      1.128343   5 N  s               116      0.853707   7 H  s         

 Vector  107  Occ=0.000000D+00  E= 3.421602D+00
              MO Center= -1.2D-05, -8.5D-02, -8.9D-05, r^2= 2.9D+00
   Bfn.  Coefficient  Atom+Function         Bfn.  Coefficient  Atom+Function  
  ----- ------------  ---------------      ----- ------------  ---------------
    50      1.352844   3 N  py               88     -1.352889   5 N  py        
    27      1.331120   2 C  py              103     -1.331258   6 C  py        
    36      0.990882   2 C  dyy             112     -0.990765   6 C  dyy       
    68      0.950228   4 C  px               29      0.861891   2 C  s         
   105     -0.861825   6 C  s                30     -0.845439   2 C  px        

 Vector  108  Occ=0.000000D+00  E= 3.486504D+00
              MO Center=  9.0D-05,  4.9D-01, -2.3D-04, r^2= 2.7D+00
   Bfn.  Coefficient  Atom+Function         Bfn.  Coefficient  Atom+Function  
  ----- ------------  ---------------      ----- ------------  ---------------
    10      3.267812   1 C  s                69     -2.311151   4 C  py        
    30     -1.859160   2 C  px              106      1.858983   6 C  px        
    12      1.654102   1 C  py               29     -1.602488   2 C  s         
   105     -1.602475   6 C  s                27      1.195316   2 C  py        
   103      1.195362   6 C  py               65      1.178683   4 C  py        

 Vector  109  Occ=0.000000D+00  E= 3.536779D+00
              MO Center=  1.6D-04,  8.7D-01, -3.3D-04, r^2= 1.8D+00
   Bfn.  Coefficient  Atom+Function         Bfn.  Coefficient  Atom+Function  
  ----- ------------  ---------------      ----- ------------  ---------------
    64      2.483821   4 C  px               48      1.551120   3 N  s         
    86     -1.551144   5 N  s                49      1.408821   3 N  px        
    87      1.408624   5 N  px               30     -1.367365   2 C  px        
   106     -1.367480   6 C  px               72     -1.306404   4 C  dxy       
    60     -1.086527   4 C  px               68      0.781566   4 C  px        

 Vector  110  Occ=0.000000D+00  E= 3.644437D+00
              MO Center=  6.2D-05,  3.7D-01, -1.3D-04, r^2= 2.7D+00
   Bfn.  Coefficient  Atom+Function         Bfn.  Coefficient  Atom+Function  
  ----- ------------  ---------------      ----- ------------  ---------------
    48      2.738254   3 N  s                86      2.738222   5 N  s         
    67     -1.709330   4 C  s                71     -1.522954   4 C  dxx       
    10      1.331059   1 C  s                29     -1.301410   2 C  s         
   105     -1.301397   6 C  s                36     -1.051814   2 C  dyy       
   112     -1.051575   6 C  dyy              49      0.891262   3 N  px        

 Vector  111  Occ=0.000000D+00  E= 3.823820D+00
              MO Center=  1.3D-04,  7.2D-01, -4.3D-04, r^2= 2.0D+00
   Bfn.  Coefficient  Atom+Function         Bfn.  Coefficient  Atom+Function  
  ----- ------------  ---------------      ----- ------------  ---------------
    47      1.092957   3 N  pz               85     -1.092965   5 N  pz        
    43     -0.913819   3 N  pz               81      0.913826   5 N  pz        
    51     -0.452803   3 N  pz               89      0.452807   5 N  pz        
    73      0.381958   4 C  dxz              37     -0.196337   2 C  dyz       
   113      0.196332   6 C  dyz              32      0.150741   2 C  pz        

 Vector  112  Occ=0.000000D+00  E= 3.873109D+00
              MO Center=  1.1D-04,  6.7D-01, -3.6D-04, r^2= 2.1D+00
   Bfn.  Coefficient  Atom+Function         Bfn.  Coefficient  Atom+Function  
  ----- ------------  ---------------      ----- ------------  ---------------
    47      1.117101   3 N  pz               85      1.117092   5 N  pz        
    43     -0.912022   3 N  pz               81     -0.912015   5 N  pz        
    51     -0.640513   3 N  pz               89     -0.640509   5 N  pz        
    70      0.401818   4 C  pz               66     -0.293577   4 C  pz        
    32      0.280329   2 C  pz              108      0.280327   6 C  pz        

 Vector  113  Occ=0.000000D+00  E= 4.124577D+00
              MO Center= -1.3D-04, -8.6D-01,  4.2D-04, r^2= 1.7D+00
   Bfn.  Coefficient  Atom+Function         Bfn.  Coefficient  Atom+Function  
  ----- ------------  ---------------      ----- ------------  ---------------
     8      2.559561   1 C  py               14      2.391602   1 C  dxx       
    26     -1.896599   2 C  px              102      1.897037   6 C  px        
    12     -1.517946   1 C  py               27      1.355396   2 C  py        
   103      1.354781   6 C  py               34      1.309634   2 C  dxy       
   110     -1.309036   6 C  dxy              33     -1.281198   2 C  dxx       

 Vector  114  Occ=0.000000D+00  E= 4.139979D+00
              MO Center=  1.4D-04,  7.9D-01, -4.2D-04, r^2= 2.6D+00
   Bfn.  Coefficient  Atom+Function         Bfn.  Coefficient  Atom+Function  
  ----- ------------  ---------------      ----- ------------  ---------------
    48      2.892154   3 N  s                86     -2.892169   5 N  s         
    68      1.155493   4 C  px                7     -0.961049   1 C  px        
    64      0.934720   4 C  px               72     -0.826566   4 C  dxy       
    57     -0.820081   3 N  dzz              95      0.820086   5 N  dzz       
    45      0.799913   3 N  px               83      0.800138   5 N  px        

 Vector  115  Occ=0.000000D+00  E= 4.249298D+00
              MO Center= -1.2D-04, -7.7D-01,  4.0D-04, r^2= 2.0D+00
   Bfn.  Coefficient  Atom+Function         Bfn.  Coefficient  Atom+Function  
  ----- ------------  ---------------      ----- ------------  ---------------
     7      3.961386   1 C  px               15      2.934185   1 C  dxy       
    26      1.956475   2 C  px              102      1.956869   6 C  px        
    34     -1.773348   2 C  dxy             110     -1.772889   6 C  dxy       
    27     -1.315691   2 C  py              103      1.315041   6 C  py        
    33      1.090126   2 C  dxx             109     -1.090676   6 C  dxx       

 Vector  116  Occ=0.000000D+00  E= 4.300363D+00
              MO Center=  8.5D-05,  5.5D-01, -4.6D-04, r^2= 2.5D+00
   Bfn.  Coefficient  Atom+Function         Bfn.  Coefficient  Atom+Function  
  ----- ------------  ---------------      ----- ------------  ---------------
    48      3.654840   3 N  s                86      3.654800   5 N  s         
    29     -2.364910   2 C  s               105     -2.364914   6 C  s         
    10      1.967659   1 C  s                12      1.731378   1 C  py        
    67     -1.559879   4 C  s                45      0.909480   3 N  px        
    83     -0.909613   5 N  px               65      0.879359   4 C  py        

 Vector  117  Occ=0.000000D+00  E= 4.918850D+00
              MO Center=  1.7D-04,  1.0D+00, -3.1D-04, r^2= 1.3D+00
   Bfn.  Coefficient  Atom+Function         Bfn.  Coefficient  Atom+Function  
  ----- ------------  ---------------      ----- ------------  ---------------
    71      1.674867   4 C  dxx              45     -1.295965   3 N  px        
    83      1.295646   5 N  px               52     -1.097456   3 N  dxx       
    90     -1.097240   5 N  dxx              65     -1.042709   4 C  py        
    46     -0.998515   3 N  py               84     -0.998925   5 N  py        
    44      0.802840   3 N  s                82      0.802843   5 N  s         

 Vector  118  Occ=0.000000D+00  E= 5.070461D+00
              MO Center=  6.2D-05,  1.9D-01, -2.6D-04, r^2= 2.1D+00
   Bfn.  Coefficient  Atom+Function         Bfn.  Coefficient  Atom+Function  
  ----- ------------  ---------------      ----- ------------  ---------------
    46      1.678440   3 N  py               84      1.678473   5 N  py        
    27      1.456993   2 C  py              103      1.457016   6 C  py        
    55     -1.412259   3 N  dyy              93     -1.412250   5 N  dyy       
    36      1.139844   2 C  dyy             112      1.139869   6 C  dyy       
    10      0.887736   1 C  s                29     -0.839359   2 C  s         

 Vector  119  Occ=0.000000D+00  E= 5.161823D+00
              MO Center=  4.0D-06,  1.2D-01, -1.7D-04, r^2= 2.1D+00
   Bfn.  Coefficient  Atom+Function         Bfn.  Coefficient  Atom+Function  
  ----- ------------  ---------------      ----- ------------  ---------------
    27      1.939841   2 C  py              103     -1.939549   6 C  py        
     7     -1.687823   1 C  px               46      1.550104   3 N  py        
    84     -1.549991   5 N  py               55     -1.512285   3 N  dyy       
    93      1.512256   5 N  dyy              15     -1.441834   1 C  dxy       
    36      1.007766   2 C  dyy             112     -1.007962   6 C  dyy       

 Vector  120  Occ=0.000000D+00  E= 5.275535D+00
              MO Center=  1.4D-04,  8.6D-01, -3.1D-04, r^2= 1.3D+00
   Bfn.  Coefficient  Atom+Function         Bfn.  Coefficient  Atom+Function  
  ----- ------------  ---------------      ----- ------------  ---------------
    64      2.804419   4 C  px               72     -2.372289   4 C  dxy       
    45      1.714934   3 N  px               83      1.714574   5 N  px        
    52      1.294617   3 N  dxx              90     -1.294393   5 N  dxx       
    46      1.128448   3 N  py               84     -1.128973   5 N  py        
    53      0.725247   3 N  dxy              91      0.725918   5 N  dxy       

 Vector  121  Occ=0.000000D+00  E= 2.646980D+01
              MO Center= -2.1D-04, -6.2D-01,  6.3D-05, r^2= 1.5D+00
   Bfn.  Coefficient  Atom+Function         Bfn.  Coefficient  Atom+Function  
  ----- ------------  ---------------      ----- ------------  ---------------
    21      1.815137   2 C  s                97     -1.814956   6 C  s         
    20     -1.493463   2 C  s                96      1.493314   6 C  s         
    25     -0.772490   2 C  s               101      0.772406   6 C  s         
    29     -0.570957   2 C  s               105      0.570857   6 C  s         
    36      0.499760   2 C  dyy             112     -0.499705   6 C  dyy       

 Vector  122  Occ=0.000000D+00  E= 2.647196D+01
              MO Center=  1.9D-04,  3.9D-01,  1.7D-04, r^2= 1.7D+00
   Bfn.  Coefficient  Atom+Function         Bfn.  Coefficient  Atom+Function  
  ----- ------------  ---------------      ----- ------------  ---------------
    59      2.042829   4 C  s                58     -1.680073   4 C  s         
     2     -1.372272   1 C  s                 1      1.130243   1 C  s         
    63     -0.875978   4 C  s                 6      0.625173   1 C  s         
    71      0.580321   4 C  dxx              21     -0.515211   2 C  s         
    74      0.517203   4 C  dyy              97     -0.515868   6 C  s         

 Vector  123  Occ=0.000000D+00  E= 2.651073D+01
              MO Center= -2.4D-05, -1.9D-01,  1.1D-04, r^2= 1.9D+00
   Bfn.  Coefficient  Atom+Function         Bfn.  Coefficient  Atom+Function  
  ----- ------------  ---------------      ----- ------------  ---------------
    21      1.394600   2 C  s                97      1.394598   6 C  s         
    59      1.350396   4 C  s                20     -1.145085   2 C  s         
    96     -1.145083   6 C  s                58     -1.108246   4 C  s         
     2      0.956164   1 C  s                10     -0.814826   1 C  s         
     1     -0.786318   1 C  s                48     -0.645430   3 N  s         

 Vector  124  Occ=0.000000D+00  E= 2.668063D+01
              MO Center= -1.3D-04, -8.6D-01,  5.6D-04, r^2= 1.2D+00
   Bfn.  Coefficient  Atom+Function         Bfn.  Coefficient  Atom+Function  
  ----- ------------  ---------------      ----- ------------  ---------------
     2      1.965352   1 C  s                 1     -1.605805   1 C  s         
    10     -1.609551   1 C  s                21     -1.057997   2 C  s         
    97     -1.057990   6 C  s                29      0.961225   2 C  s         
   105      0.961224   6 C  s                20      0.863545   2 C  s         
    96      0.863540   6 C  s                59      0.788754   4 C  s         

 Vector  125  Occ=0.000000D+00  E= 3.965257D+01
              MO Center=  1.9D-04,  7.1D-01, -4.2D-04, r^2= 1.5D+00
   Bfn.  Coefficient  Atom+Function         Bfn.  Coefficient  Atom+Function  
  ----- ------------  ---------------      ----- ------------  ---------------
    40      1.873791   3 N  s                78      1.873902   5 N  s         
    39     -1.573658   3 N  s                77     -1.573751   5 N  s         
    48     -0.857450   3 N  s                86     -0.857488   5 N  s         
    44     -0.709804   3 N  s                82     -0.709847   5 N  s         
    29      0.538493   2 C  s               105      0.538502   6 C  s         

 Vector  126  Occ=0.000000D+00  E= 3.967284D+01
              MO Center=  5.2D-05,  7.1D-01, -4.2D-04, r^2= 1.5D+00
   Bfn.  Coefficient  Atom+Function         Bfn.  Coefficient  Atom+Function  
  ----- ------------  ---------------      ----- ------------  ---------------
    40      1.876076   3 N  s                78     -1.875965   5 N  s         
    39     -1.574472   3 N  s                77      1.574378   5 N  s         
    44     -0.719475   3 N  s                82      0.719433   5 N  s         
    48     -0.676929   3 N  s                86      0.676877   5 N  s         
    55      0.496176   3 N  dyy              93     -0.496162   5 N  dyy       


 center of mass
 --------------
 x =   0.00002213 y =   0.05142964 z =   0.00004212

 moments of inertia (a.u.)
 ------------------
         284.646626252281           0.001362956315          -0.000796459334
           0.001362956315         294.714823058374           0.122115353439
          -0.000796459334           0.122115353439         579.361270403072

     Multipole analysis of the density
     ---------------------------------

     L   x y z        total         alpha         beta         nuclear
     -   - - -        -----         -----         ----         -------
     0   0 0 0     -0.000000    -21.000000    -21.000000     42.000000

     1   1 0 0     -0.000146     -0.000355     -0.000355      0.000564
     1   0 1 0     -0.911222     -0.417706     -0.417706     -0.075809
     1   0 0 1      0.000903     -0.001546     -0.001546      0.003995

     2   2 0 0    -27.183037    -95.444173    -95.444173    163.705309
     2   1 1 0      0.000749     -0.000015     -0.000015      0.000779
     2   1 0 1      0.000347     -0.000388     -0.000388      0.001124
     2   0 2 0    -22.526161    -94.967811    -94.967811    167.409460
     2   0 1 1     -0.001812      0.035194      0.035194     -0.072200
     2   0 0 2    -26.602515    -13.301287    -13.301287      0.000060


 Parallel integral file used     505 records with       0 large values

 Line search: 
     step= 1.00 grad=-3.8D-05 hess= 1.6D-05 energy=   -264.071331 mode=downhill
 new step= 1.16                   predicted energy=   -264.071332

          --------
          Step   3
          --------


                         Geometry "geometry" -> "geometry"
                         ---------------------------------

 Output coordinates in angstroms (scale by  1.889725989 to convert to a.u.)

  No.       Tag          Charge          X              Y              Z
 ---- ---------------- ---------- -------------- -------------- --------------
    1 C                    6.0000    -0.00021107    -1.35081060     0.00101320
    2 C                    6.0000    -1.17912905    -0.61898172     0.00006056
    3 N                    7.0000    -1.19284180     0.71166011    -0.00041152
    4 C                    6.0000     0.00021741     1.30048116    -0.00020139
    5 N                    7.0000     1.19308749     0.71127856    -0.00046165
    6 C                    6.0000     1.17894463    -0.61936062     0.00011536
    7 H                    1.0000    -0.00039153    -2.43480529     0.00281823
    8 H                    1.0000    -2.14944001    -1.11184372    -0.00032122
    9 H                    1.0000     0.00039253     2.38780328     0.00006575
   10 H                    1.0000     2.14909520    -1.11253068    -0.00013446

      Atomic Mass 
      ----------- 

      C                 12.000000
      N                 14.003070
      H                  1.007825


 Effective nuclear repulsion energy (a.u.)     209.6455498191

            Nuclear Dipole moment (a.u.) 
            ----------------------------
        X                 Y               Z
 ---------------- ---------------- ----------------
     0.0005812168    -0.0809490245     0.0042376399


                                 NWChem DFT Module
                                 -----------------


             pyrimidine geometry optimization, PBE0/6-311G* Cartesian




 Summary of "ao basis" -> "ao basis" (cartesian)
 ------------------------------------------------------------------------------
       Tag                 Description            Shells   Functions and Types
 ---------------- ------------------------------  ------  ---------------------
 C                          6-311G*                  8       19   4s3p1d
 N                          6-311G*                  8       19   4s3p1d
 H                          6-311G*                  3        3   3s


  Caching 1-el integrals 

            General Information
            -------------------
          SCF calculation type: DFT
          Wavefunction type:  closed shell.
          No. of atoms     :    10
          No. of electrons :    42
           Alpha electrons :    21
            Beta electrons :    21
          Charge           :     0
          Spin multiplicity:     1
          Use of symmetry is: off; symmetry adaption is: off
          Maximum number of iterations: 100
          AO basis - number of functions:   126
                     number of shells:    60
          Convergence on energy requested:  1.00D-07
          Convergence on density requested:  1.00D-05
          Convergence on gradient requested:  5.00D-04

              XC Information
              --------------
                         PBE0 Method XC Functional
                     Hartree-Fock (Exact) Exchange  0.250          
          PerdewBurkeErnzerhof Exchange Functional  0.750          
            Perdew 1991 LDA Correlation Functional  1.000 local    
           PerdewBurkeErnz. Correlation Functional  1.000 non-local

             Grid Information
             ----------------
          Grid used for XC integration:  fine      
          Radial quadrature: Mura-Knowles        
          Angular quadrature: Lebedev. 
          Tag              B.-S. Rad. Rad. Pts. Rad. Cut. Ang. Pts.
          ---              ---------- --------- --------- ---------
          C                   0.70       70          11.0       590
          N                   0.65       70          11.0       590
          H                   0.35       60          13.0       590
          Grid pruning is: on 
          Number of quadrature shells:   660
          Spatial weights used:  Erf1

          Convergence Information
          -----------------------
          Convergence aids based upon iterative change in 
          total energy or number of iterations. 
          Levelshifting, if invoked, occurs when the 
          HOMO/LUMO gap drops below (HL_TOL):  1.00D-02
          DIIS, if invoked, will attempt to extrapolate 
          using up to (NFOCK): 10 stored Fock matrices.

                    Damping( 0%)  Levelshifting(0.5)       DIIS
                  --------------- ------------------- ---------------
          dE  on:    start            ASAP                start   
          dE off:    2 iters        100 iters           100 iters 


      Screening Tolerance Information
      -------------------------------
          Density screening/tol_rho:  1.00D-10
          AO Gaussian exp screening on grid/accAOfunc:  16
          CD Gaussian exp screening on grid/accCDfunc:  20
          XC Gaussian exp screening on grid/accXCfunc:  20
          Schwarz screening/accCoul:  1.00D-08


 Loading old vectors from job with title :

pyrimidine geometry optimization, PBE0/6-311G* Cartesian

   Time after variat. SCF:     71.7
   Time prior to 1st pass:     71.7

 Integral file          = /Users/bldrdge1/Downloads/repos/PlasMol/jobs/final/Step_1/pyrimidine/pyrimidine_opt.aoints.0
 Record size in doubles =  65536        No. of integs per rec  =  43688
 Max. records in memory =    995        Max. records in file   = 160123
 No. of bits per label  =      8        No. of bits per value  =     64


 #quartets = 1.346D+06 #integrals = 2.213D+07 #direct =  0.0% #cached =100.0%


 Grid_pts file          = /Users/bldrdge1/Downloads/repos/PlasMol/jobs/final/Step_1/pyrimidine/pyrimidine_opt.gridpts.0
 Record size in doubles =  12289        No. of grid_pts per rec  =   3070
 Max. records in memory =    141        Max. recs in file   =    852995


           Memory utilization after 1st SCF pass: 
           Heap Space remaining (MW):       14.94            14938436
          Stack Space remaining (MW):       81.92            81919076

   convergence    iter        energy       DeltaE   RMS-Dens  Diis-err    time
 ---------------- ----- ----------------- --------- --------- ---------  ------
 d= 0,ls=0.0,diis     1   -264.0713314874 -4.74D+02  1.16D-05  1.45D-06    74.6
 d= 0,ls=0.0,diis     2   -264.0713316565 -1.69D-07  4.81D-06  3.11D-07    76.1
 d= 0,ls=0.0,diis     3   -264.0713316505  6.02D-09  2.85D-06  3.44D-07    77.6


         Total DFT energy =     -264.071331650484
      One electron energy =     -771.096062483912
           Coulomb energy =      334.090014387686
    Exchange-Corr. energy =      -36.710833373384
 Nuclear repulsion energy =      209.645549819126

 Numeric. integr. density =       42.000002194881

     Total iterative time =      5.9s



                       DFT Final Molecular Orbital Analysis
                       ------------------------------------

 Vector    1  Occ=2.000000D+00  E=-1.439367D+01
              MO Center=  4.8D-02,  7.1D-01, -4.4D-04, r^2= 1.4D+00
   Bfn.  Coefficient  Atom+Function         Bfn.  Coefficient  Atom+Function  
  ----- ------------  ---------------      ----- ------------  ---------------
    77     -0.402514   5 N  s                39      0.386749   3 N  s         
    78     -0.333642   5 N  s                40      0.320574   3 N  s         

 Vector    2  Occ=2.000000D+00  E=-1.439366D+01
              MO Center= -4.8D-02,  7.1D-01, -4.4D-04, r^2= 1.4D+00
   Bfn.  Coefficient  Atom+Function         Bfn.  Coefficient  Atom+Function  
  ----- ------------  ---------------      ----- ------------  ---------------
    39      0.402510   3 N  s                77      0.386744   5 N  s         
    40      0.333664   3 N  s                78      0.320596   5 N  s         

 Vector    3  Occ=2.000000D+00  E=-1.029670D+01
              MO Center=  2.2D-04,  1.3D+00, -2.0D-04, r^2= 2.8D-02
   Bfn.  Coefficient  Atom+Function         Bfn.  Coefficient  Atom+Function  
  ----- ------------  ---------------      ----- ------------  ---------------
    58      0.563889   4 C  s                59      0.460081   4 C  s         

 Vector    4  Occ=2.000000D+00  E=-1.028582D+01
              MO Center=  4.1D-02, -6.2D-01,  8.9D-05, r^2= 1.4D+00
   Bfn.  Coefficient  Atom+Function         Bfn.  Coefficient  Atom+Function  
  ----- ------------  ---------------      ----- ------------  ---------------
    96      0.405611   6 C  s                20      0.391636   2 C  s         
    97      0.330911   6 C  s                21      0.319507   2 C  s         

 Vector    5  Occ=2.000000D+00  E=-1.028581D+01
              MO Center= -4.1D-02, -6.2D-01,  8.7D-05, r^2= 1.4D+00
   Bfn.  Coefficient  Atom+Function         Bfn.  Coefficient  Atom+Function  
  ----- ------------  ---------------      ----- ------------  ---------------
    20      0.405639   2 C  s                96     -0.391665   6 C  s         
    21      0.330988   2 C  s                97     -0.319587   6 C  s         

 Vector    6  Occ=2.000000D+00  E=-1.025325D+01
              MO Center= -2.1D-04, -1.4D+00,  1.0D-03, r^2= 2.8D-02
   Bfn.  Coefficient  Atom+Function         Bfn.  Coefficient  Atom+Function  
  ----- ------------  ---------------      ----- ------------  ---------------
     1      0.563777   1 C  s                 2      0.459919   1 C  s         

 Vector    7  Occ=2.000000D+00  E=-1.026930D+00
              MO Center=  7.6D-05,  4.3D-01, -1.9D-04, r^2= 1.6D+00
   Bfn.  Coefficient  Atom+Function         Bfn.  Coefficient  Atom+Function  
  ----- ------------  ---------------      ----- ------------  ---------------
    44      0.264948   3 N  s                82      0.264948   5 N  s         
    63      0.240793   4 C  s                48      0.199400   3 N  s         
    86      0.199400   5 N  s                25      0.157828   2 C  s         
   101      0.157828   6 C  s                40     -0.099144   3 N  s         
    78     -0.099143   5 N  s                 6      0.093597   1 C  s         

 Vector    8  Occ=2.000000D+00  E=-9.265335D-01
              MO Center=  6.8D-05,  3.7D-01, -2.3D-04, r^2= 1.9D+00
   Bfn.  Coefficient  Atom+Function         Bfn.  Coefficient  Atom+Function  
  ----- ------------  ---------------      ----- ------------  ---------------
    44      0.319897   3 N  s                82     -0.319897   5 N  s         
    48      0.217209   3 N  s                86     -0.217209   5 N  s         
    25      0.190798   2 C  s               101     -0.190797   6 C  s         
    40     -0.116666   3 N  s                64     -0.116234   4 C  px        
    78      0.116666   5 N  s                60     -0.078172   4 C  px        

 Vector    9  Occ=2.000000D+00  E=-8.272326D-01
              MO Center= -7.5D-05, -5.0D-01,  3.9D-04, r^2= 2.2D+00
   Bfn.  Coefficient  Atom+Function         Bfn.  Coefficient  Atom+Function  
  ----- ------------  ---------------      ----- ------------  ---------------
     6      0.339205   1 C  s                63     -0.232288   4 C  s         
    25      0.209760   2 C  s               101      0.209761   6 C  s         
    10      0.144370   1 C  s                 2     -0.128475   1 C  s         
    67     -0.110278   4 C  s                29      0.106646   2 C  s         
   105      0.106646   6 C  s                44     -0.099466   3 N  s         

 Vector   10  Occ=2.000000D+00  E=-6.859092D-01
              MO Center=  4.0D-04, -2.4D-01,  4.0D-05, r^2= 3.0D+00
   Bfn.  Coefficient  Atom+Function         Bfn.  Coefficient  Atom+Function  
  ----- ------------  ---------------      ----- ------------  ---------------
    25      0.273211   2 C  s               101     -0.273327   6 C  s         
    29      0.171364   2 C  s               105     -0.171466   6 C  s         
    64      0.157142   4 C  px               44     -0.142120   3 N  s         
    82      0.142007   5 N  s                 7     -0.135004   1 C  px        
    48     -0.117853   3 N  s                86      0.117766   5 N  s         

 Vector   11  Occ=2.000000D+00  E=-6.854079D-01
              MO Center= -4.1D-04,  9.6D-02,  1.4D-04, r^2= 3.0D+00
   Bfn.  Coefficient  Atom+Function         Bfn.  Coefficient  Atom+Function  
  ----- ------------  ---------------      ----- ------------  ---------------
    63      0.281575   4 C  s                 6      0.246545   1 C  s         
    10      0.199994   1 C  s                67      0.177358   4 C  s         
    46      0.125356   3 N  py               84      0.125274   5 N  py        
    27     -0.109476   2 C  py              103     -0.109512   6 C  py        
    25     -0.102335   2 C  s                44     -0.101536   3 N  s         

 Vector   12  Occ=2.000000D+00  E=-5.629985D-01
              MO Center= -1.3D-05, -1.4D-01,  5.3D-05, r^2= 3.9D+00
   Bfn.  Coefficient  Atom+Function         Bfn.  Coefficient  Atom+Function  
  ----- ------------  ---------------      ----- ------------  ---------------
    26      0.167543   2 C  px              102     -0.167525   6 C  px        
    65     -0.160512   4 C  py                8      0.120611   1 C  py        
    29     -0.116805   2 C  s               105     -0.116805   6 C  s         
    22      0.103349   2 C  px               98     -0.103339   6 C  px        
    67     -0.102106   4 C  s               119     -0.102005   8 H  s         

 Vector   13  Occ=2.000000D+00  E=-5.390918D-01
              MO Center= -5.1D-06, -1.1D-01,  6.7D-05, r^2= 2.5D+00
   Bfn.  Coefficient  Atom+Function         Bfn.  Coefficient  Atom+Function  
  ----- ------------  ---------------      ----- ------------  ---------------
     7      0.184904   1 C  px               27      0.178400   2 C  py        
   103     -0.178382   6 C  py               64      0.173727   4 C  px        
    46     -0.165730   3 N  py               84      0.165763   5 N  py        
     3      0.122466   1 C  px               23      0.121838   2 C  py        
    60      0.121628   4 C  px               99     -0.121825   6 C  py        

 Vector   14  Occ=2.000000D+00  E=-4.908939D-01
              MO Center= -1.5D-04, -9.4D-01,  1.2D-03, r^2= 3.5D+00
   Bfn.  Coefficient  Atom+Function         Bfn.  Coefficient  Atom+Function  
  ----- ------------  ---------------      ----- ------------  ---------------
     8      0.265556   1 C  py              116     -0.195922   7 H  s         
     4      0.167871   1 C  py               12      0.165726   1 C  py        
   115     -0.161618   7 H  s                65      0.138543   4 C  py        
    25      0.126457   2 C  s               101      0.126456   6 C  s         
    44     -0.120774   3 N  s                82     -0.120773   5 N  s         

 Vector   15  Occ=2.000000D+00  E=-4.507491D-01
              MO Center=  4.5D-05,  2.6D-01, -2.4D-05, r^2= 2.4D+00
   Bfn.  Coefficient  Atom+Function         Bfn.  Coefficient  Atom+Function  
  ----- ------------  ---------------      ----- ------------  ---------------
    47      0.186292   3 N  pz               85      0.186292   5 N  pz        
    66      0.184054   4 C  pz               28      0.147526   2 C  pz        
   104      0.147525   6 C  pz               51      0.131020   3 N  pz        
    89      0.131019   5 N  pz               70      0.125977   4 C  pz        
     9      0.121790   1 C  pz               43      0.117357   3 N  pz        

 Vector   16  Occ=2.000000D+00  E=-4.400845D-01
              MO Center= -8.9D-05, -5.8D-01, -1.1D-05, r^2= 3.4D+00
   Bfn.  Coefficient  Atom+Function         Bfn.  Coefficient  Atom+Function  
  ----- ------------  ---------------      ----- ------------  ---------------
    26      0.223832   2 C  px              102      0.223812   6 C  px        
     7     -0.161297   1 C  px               22      0.144315   2 C  px        
    98      0.144303   6 C  px              119     -0.142829   8 H  s         
   125      0.142829  10 H  s                30      0.139002   2 C  px        
   106      0.138989   6 C  px              118     -0.112165   8 H  s         

 Vector   17  Occ=2.000000D+00  E=-4.303008D-01
              MO Center=  6.6D-05,  3.5D-01, -2.2D-04, r^2= 3.8D+00
   Bfn.  Coefficient  Atom+Function         Bfn.  Coefficient  Atom+Function  
  ----- ------------  ---------------      ----- ------------  ---------------
    65      0.244360   4 C  py               61      0.152977   4 C  py        
    69      0.152764   4 C  py               10      0.141455   1 C  s         
   122      0.137695   9 H  s                45     -0.134663   3 N  px        
    83      0.134643   5 N  px              119     -0.121525   8 H  s         
   125     -0.121524  10 H  s                27      0.115380   2 C  py        

 Vector   18  Occ=2.000000D+00  E=-3.379818D-01
              MO Center=  4.0D-05,  1.9D-01, -1.9D-04, r^2= 2.6D+00
   Bfn.  Coefficient  Atom+Function         Bfn.  Coefficient  Atom+Function  
  ----- ------------  ---------------      ----- ------------  ---------------
    47      0.235265   3 N  pz               85     -0.235266   5 N  pz        
    51      0.210626   3 N  pz               89     -0.210628   5 N  pz        
    28      0.191085   2 C  pz              104     -0.191083   6 C  pz        
    32      0.165538   2 C  pz              108     -0.165537   6 C  pz        
    43      0.151192   3 N  pz               81     -0.151193   5 N  pz        

 Vector   19  Occ=2.000000D+00  E=-3.210604D-01
              MO Center=  1.3D-04,  7.0D-01, -1.3D-04, r^2= 3.2D+00
   Bfn.  Coefficient  Atom+Function         Bfn.  Coefficient  Atom+Function  
  ----- ------------  ---------------      ----- ------------  ---------------
    48      0.235699   3 N  s                86      0.235702   5 N  s         
    50      0.184535   3 N  py               88      0.184491   5 N  py        
    46      0.180155   3 N  py               84      0.180114   5 N  py        
    44      0.179208   3 N  s                82      0.179209   5 N  s         
   122     -0.145273   9 H  s                49     -0.141009   3 N  px        

 Vector   20  Occ=2.000000D+00  E=-3.062879D-01
              MO Center= -4.2D-05, -3.1D-01,  3.0D-04, r^2= 2.7D+00
   Bfn.  Coefficient  Atom+Function         Bfn.  Coefficient  Atom+Function  
  ----- ------------  ---------------      ----- ------------  ---------------
     9      0.266918   1 C  pz               13      0.253513   1 C  pz        
    66     -0.218439   4 C  pz               70     -0.195762   4 C  pz        
     5      0.164505   1 C  pz               28      0.146326   2 C  pz        
   104      0.146329   6 C  pz               62     -0.133715   4 C  pz        
    32      0.113314   2 C  pz              108      0.113316   6 C  pz        

 Vector   21  Occ=2.000000D+00  E=-2.711371D-01
              MO Center=  7.7D-05,  5.2D-01, -4.7D-04, r^2= 3.2D+00
   Bfn.  Coefficient  Atom+Function         Bfn.  Coefficient  Atom+Function  
  ----- ------------  ---------------      ----- ------------  ---------------
    49      0.267222   3 N  px               87      0.267253   5 N  px        
    45      0.248207   3 N  px               83      0.248236   5 N  px        
    11      0.202403   1 C  px               41      0.171396   3 N  px        
    79      0.171415   5 N  px               64     -0.135729   4 C  px        
     7      0.117192   1 C  px               44     -0.117227   3 N  s         

 Vector   22  Occ=0.000000D+00  E=-4.253812D-02
              MO Center= -1.1D-05, -1.6D-01, -4.5D-05, r^2= 3.1D+00
   Bfn.  Coefficient  Atom+Function         Bfn.  Coefficient  Atom+Function  
  ----- ------------  ---------------      ----- ------------  ---------------
    32      0.422973   2 C  pz              108     -0.422981   6 C  pz        
    51     -0.352181   3 N  pz               89      0.352177   5 N  pz        
    28      0.250272   2 C  pz              104     -0.250276   6 C  pz        
    47     -0.200318   3 N  pz               85      0.200316   5 N  pz        
    24      0.157134   2 C  pz              100     -0.157136   6 C  pz        

 Vector   23  Occ=0.000000D+00  E=-3.046037D-02
              MO Center=  2.0D-05,  9.2D-02,  1.4D-04, r^2= 3.2D+00
   Bfn.  Coefficient  Atom+Function         Bfn.  Coefficient  Atom+Function  
  ----- ------------  ---------------      ----- ------------  ---------------
    13      0.515997   1 C  pz               70      0.465608   4 C  pz        
    66      0.295993   4 C  pz               32     -0.286380   2 C  pz        
   108     -0.286369   6 C  pz                9      0.234987   1 C  pz        
    51     -0.198105   3 N  pz               89     -0.198114   5 N  pz        
    62      0.180870   4 C  pz                5      0.157303   1 C  pz        

 Vector   24  Occ=0.000000D+00  E= 5.648964D-02
              MO Center= -3.4D-04, -2.0D+00,  1.5D-03, r^2= 6.8D+00
   Bfn.  Coefficient  Atom+Function         Bfn.  Coefficient  Atom+Function  
  ----- ------------  ---------------      ----- ------------  ---------------
   117      1.272079   7 H  s                10     -0.900083   1 C  s         
   120      0.877757   8 H  s               126      0.877736  10 H  s         
    29     -0.645450   2 C  s               105     -0.645434   6 C  s         
    12      0.540393   1 C  py               30      0.303504   2 C  px        
   106     -0.303451   6 C  px              123      0.278626   9 H  s         

 Vector   25  Occ=0.000000D+00  E= 9.452918D-02
              MO Center= -1.7D-04, -1.4D+00, -3.7D-04, r^2= 9.4D+00
   Bfn.  Coefficient  Atom+Function         Bfn.  Coefficient  Atom+Function  
  ----- ------------  ---------------      ----- ------------  ---------------
   120      1.540355   8 H  s               126     -1.540386  10 H  s         
    29     -1.161419   2 C  s               105      1.161429   6 C  s         
    30      0.678413   2 C  px              106      0.678322   6 C  px        
    31      0.331544   2 C  py              107     -0.331768   6 C  py        
    11     -0.314652   1 C  px               25     -0.126693   2 C  s         

 Vector   26  Occ=0.000000D+00  E= 1.024734D-01
              MO Center=  3.5D-04,  2.1D+00,  7.4D-04, r^2= 6.6D+00
   Bfn.  Coefficient  Atom+Function         Bfn.  Coefficient  Atom+Function  
  ----- ------------  ---------------      ----- ------------  ---------------
   123      1.991927   9 H  s                67     -1.109322   4 C  s         
    69     -1.012805   4 C  py              117     -0.855027   7 H  s         
    12     -0.548037   1 C  py               10      0.355373   1 C  s         
    48     -0.263346   3 N  s                86     -0.263345   5 N  s         
   120      0.181153   8 H  s               126      0.181129  10 H  s         

 Vector   27  Occ=0.000000D+00  E= 1.205490D-01
              MO Center= -2.4D-04, -1.4D+00,  1.3D-03, r^2= 9.5D+00
   Bfn.  Coefficient  Atom+Function         Bfn.  Coefficient  Atom+Function  
  ----- ------------  ---------------      ----- ------------  ---------------
   117      1.712328   7 H  s               120     -1.232105   8 H  s         
   126     -1.232097  10 H  s                12      1.194124   1 C  py        
   123      0.765387   9 H  s                10     -0.671539   1 C  s         
    30     -0.662412   2 C  px              106      0.662210   6 C  px        
    31     -0.621693   2 C  py              107     -0.621899   6 C  py        

 Vector   28  Occ=0.000000D+00  E= 1.328750D-01
              MO Center= -4.9D-07, -2.7D-02, -1.8D-04, r^2= 3.5D+00
   Bfn.  Coefficient  Atom+Function         Bfn.  Coefficient  Atom+Function  
  ----- ------------  ---------------      ----- ------------  ---------------
    13      0.631824   1 C  pz               32     -0.563182   2 C  pz        
   108     -0.563178   6 C  pz               70     -0.506102   4 C  pz        
    51      0.484821   3 N  pz               89      0.484819   5 N  pz        
    47      0.215410   3 N  pz               85      0.215409   5 N  pz        
     9      0.207836   1 C  pz               66     -0.195014   4 C  pz        

 Vector   29  Occ=0.000000D+00  E= 2.110889D-01
              MO Center=  7.4D-05, -7.0D-02,  1.9D-04, r^2= 4.9D+00
   Bfn.  Coefficient  Atom+Function         Bfn.  Coefficient  Atom+Function  
  ----- ------------  ---------------      ----- ------------  ---------------
    48      2.252409   3 N  s                86      2.252639   5 N  s         
    67     -1.909085   4 C  s                10     -1.302373   1 C  s         
    31     -1.122171   2 C  py              107     -1.122070   6 C  py        
    69      1.037237   4 C  py               29     -0.902848   2 C  s         
   105     -0.903084   6 C  s                30      0.559341   2 C  px        

 Vector   30  Occ=0.000000D+00  E= 2.141542D-01
              MO Center= -9.5D-05, -1.8D-01,  2.9D-04, r^2= 5.1D+00
   Bfn.  Coefficient  Atom+Function         Bfn.  Coefficient  Atom+Function  
  ----- ------------  ---------------      ----- ------------  ---------------
    48     -1.991449   3 N  s                86      1.991160   5 N  s         
    29      1.828998   2 C  s               105     -1.828870   6 C  s         
    11      1.104606   1 C  px               68     -1.091448   4 C  px        
    31      0.760444   2 C  py              107     -0.760521   6 C  py        
    30      0.662941   2 C  px              106      0.662758   6 C  px        

 Vector   31  Occ=0.000000D+00  E= 2.774155D-01
              MO Center= -1.5D-04, -9.9D-01, -1.6D-04, r^2= 4.4D+00
   Bfn.  Coefficient  Atom+Function         Bfn.  Coefficient  Atom+Function  
  ----- ------------  ---------------      ----- ------------  ---------------
    10      2.921538   1 C  s                29     -1.968462   2 C  s         
   105     -1.968493   6 C  s                12      1.867855   1 C  py        
    67     -1.875433   4 C  s                30     -1.264334   2 C  px        
   106      1.264459   6 C  px               48      0.982887   3 N  s         
    86      0.982946   5 N  s               116      0.824906   7 H  s         

 Vector   32  Occ=0.000000D+00  E= 3.042588D-01
              MO Center=  5.0D-05,  2.8D-01,  5.8D-04, r^2= 5.7D+00
   Bfn.  Coefficient  Atom+Function         Bfn.  Coefficient  Atom+Function  
  ----- ------------  ---------------      ----- ------------  ---------------
    68      2.467157   4 C  px               11      1.677403   1 C  px        
    29      1.563713   2 C  s               105     -1.563840   6 C  s         
    48      1.441452   3 N  s                86     -1.441425   5 N  s         
    50      0.725599   3 N  py               88     -0.725762   5 N  py        
    49      0.489898   3 N  px               87      0.489645   5 N  px        

 Vector   33  Occ=0.000000D+00  E= 3.284634D-01
              MO Center= -2.8D-05, -3.0D-01,  4.3D-04, r^2= 4.4D+00
   Bfn.  Coefficient  Atom+Function         Bfn.  Coefficient  Atom+Function  
  ----- ------------  ---------------      ----- ------------  ---------------
    10      4.626127   1 C  s                29     -3.713734   2 C  s         
   105     -3.713680   6 C  s                12      2.809382   1 C  py        
    30     -1.974723   2 C  px              106      1.974591   6 C  px        
   117      1.350999   7 H  s                48      0.993953   3 N  s         
    86      0.993939   5 N  s                50     -0.785763   3 N  py        

 Vector   34  Occ=0.000000D+00  E= 3.442697D-01
              MO Center= -3.5D-05, -3.6D-02, -3.1D-04, r^2= 6.4D+00
   Bfn.  Coefficient  Atom+Function         Bfn.  Coefficient  Atom+Function  
  ----- ------------  ---------------      ----- ------------  ---------------
    11      2.699938   1 C  px               31     -2.378989   2 C  py        
   107      2.378513   6 C  py               68     -1.918972   4 C  px        
    30      1.448985   2 C  px              106      1.449674   6 C  px        
    50     -1.005247   3 N  py               88      1.005448   5 N  py        
    49     -0.597971   3 N  px               87     -0.597622   5 N  px        

 Vector   35  Occ=0.000000D+00  E= 3.547968D-01
              MO Center= -6.3D-06, -1.5D-01, -1.8D-04, r^2= 4.7D+00
   Bfn.  Coefficient  Atom+Function         Bfn.  Coefficient  Atom+Function  
  ----- ------------  ---------------      ----- ------------  ---------------
    10      3.389208   1 C  s                67     -3.254691   4 C  s         
    31      1.111166   2 C  py              107      1.110866   6 C  py        
    30     -1.104747   2 C  px              106      1.105140   6 C  px        
    12      0.862074   1 C  py               49      0.837433   3 N  px        
    87     -0.837197   5 N  px               50      0.782167   3 N  py        

 Vector   36  Occ=0.000000D+00  E= 3.848435D-01
              MO Center= -5.6D-05, -3.8D-01,  7.9D-04, r^2= 3.9D+00
   Bfn.  Coefficient  Atom+Function         Bfn.  Coefficient  Atom+Function  
  ----- ------------  ---------------      ----- ------------  ---------------
    70      0.522910   4 C  pz               32      0.518661   2 C  pz        
   108      0.518657   6 C  pz               28     -0.450149   2 C  pz        
   104     -0.450148   6 C  pz                9     -0.412583   1 C  pz        
    66     -0.407268   4 C  pz               13      0.348846   1 C  pz        
    24     -0.118767   2 C  pz              100     -0.118767   6 C  pz        

 Vector   37  Occ=0.000000D+00  E= 4.011377D-01
              MO Center= -1.4D-04, -8.6D-01,  8.5D-04, r^2= 4.1D+00
   Bfn.  Coefficient  Atom+Function         Bfn.  Coefficient  Atom+Function  
  ----- ------------  ---------------      ----- ------------  ---------------
    29      2.551417   2 C  s               105     -2.551366   6 C  s         
    11      1.217144   1 C  px               30      1.011793   2 C  px        
   106      1.011962   6 C  px               68      0.765306   4 C  px        
   119     -0.725833   8 H  s               125      0.725844  10 H  s         
    31     -0.711369   2 C  py              107      0.711016   6 C  py        

 Vector   38  Occ=0.000000D+00  E= 4.187664D-01
              MO Center=  2.1D-04,  1.2D+00,  4.9D-04, r^2= 4.2D+00
   Bfn.  Coefficient  Atom+Function         Bfn.  Coefficient  Atom+Function  
  ----- ------------  ---------------      ----- ------------  ---------------
    29     -1.450401   2 C  s               105     -1.450362   6 C  s         
   122     -1.449961   9 H  s                10      1.433209   1 C  s         
    12      0.760937   1 C  py              123      0.737142   9 H  s         
    30     -0.614698   2 C  px              106      0.614609   6 C  px        
    69      0.554369   4 C  py              117      0.441529   7 H  s         

 Vector   39  Occ=0.000000D+00  E= 4.372358D-01
              MO Center= -1.3D-04, -8.8D-01, -2.2D-04, r^2= 4.5D+00
   Bfn.  Coefficient  Atom+Function         Bfn.  Coefficient  Atom+Function  
  ----- ------------  ---------------      ----- ------------  ---------------
    10      1.196494   1 C  s                67      0.853629   4 C  s         
   119      0.729638   8 H  s               125      0.729638  10 H  s         
   116     -0.657900   7 H  s               120     -0.589024   8 H  s         
   126     -0.589011  10 H  s                25     -0.423046   2 C  s         
   101     -0.423039   6 C  s                63     -0.396278   4 C  s         

 Vector   40  Occ=0.000000D+00  E= 4.468323D-01
              MO Center=  9.3D-05,  5.5D-01,  2.5D-04, r^2= 4.4D+00
   Bfn.  Coefficient  Atom+Function         Bfn.  Coefficient  Atom+Function  
  ----- ------------  ---------------      ----- ------------  ---------------
    70      1.190654   4 C  pz               66     -0.726432   4 C  pz        
    13     -0.699043   1 C  pz                9      0.461413   1 C  pz        
    62     -0.179348   4 C  pz               28      0.121242   2 C  pz        
   104      0.121235   6 C  pz                5      0.109298   1 C  pz        
    51     -0.100616   3 N  pz               89     -0.100617   5 N  pz        

 Vector   41  Occ=0.000000D+00  E= 4.562363D-01
              MO Center= -9.7D-05, -7.0D-01, -3.5D-04, r^2= 4.4D+00
   Bfn.  Coefficient  Atom+Function         Bfn.  Coefficient  Atom+Function  
  ----- ------------  ---------------      ----- ------------  ---------------
    32      1.029344   2 C  pz              108     -1.029348   6 C  pz        
    28     -0.626077   2 C  pz              104      0.626081   6 C  pz        
    24     -0.153592   2 C  pz              100      0.153592   6 C  pz        
    16      0.079348   1 C  dxz              51     -0.078252   3 N  pz        
    89      0.078251   5 N  pz               35     -0.071052   2 C  dxz       

 Vector   42  Occ=0.000000D+00  E= 5.123756D-01
              MO Center=  8.4D-05,  5.1D-01, -3.7D-04, r^2= 3.8D+00
   Bfn.  Coefficient  Atom+Function         Bfn.  Coefficient  Atom+Function  
  ----- ------------  ---------------      ----- ------------  ---------------
    31     -1.120220   2 C  py              107      1.120187   6 C  py        
    48      1.068321   3 N  s                86     -1.068312   5 N  s         
    11      1.058267   1 C  px               68      0.970618   4 C  px        
    25      0.536420   2 C  s               101     -0.536428   6 C  s         
    64     -0.511223   4 C  px               29     -0.455926   2 C  s         

 Vector   43  Occ=0.000000D+00  E= 5.343060D-01
              MO Center= -1.3D-04, -8.6D-01,  1.8D-04, r^2= 4.6D+00
   Bfn.  Coefficient  Atom+Function         Bfn.  Coefficient  Atom+Function  
  ----- ------------  ---------------      ----- ------------  ---------------
    13      1.664948   1 C  pz               32     -1.120962   2 C  pz        
   108     -1.120960   6 C  pz                9     -0.660352   1 C  pz        
    70      0.526626   4 C  pz               28      0.422165   2 C  pz        
   104      0.422164   6 C  pz               66     -0.273683   4 C  pz        
     5     -0.175412   1 C  pz               24      0.113673   2 C  pz        

 Vector   44  Occ=0.000000D+00  E= 5.520465D-01
              MO Center= -1.8D-04, -9.8D-01,  3.4D-04, r^2= 5.3D+00
   Bfn.  Coefficient  Atom+Function         Bfn.  Coefficient  Atom+Function  
  ----- ------------  ---------------      ----- ------------  ---------------
    11      3.304937   1 C  px               30      1.628445   2 C  px        
   106      1.628724   6 C  px               31     -1.223107   2 C  py        
   107      1.222536   6 C  py               68     -1.164229   4 C  px        
   120      1.145752   8 H  s               126     -1.145697  10 H  s         
    29      0.984594   2 C  s               105     -0.984586   6 C  s         

 Vector   45  Occ=0.000000D+00  E= 5.596598D-01
              MO Center= -7.6D-06, -2.3D-01,  5.4D-04, r^2= 4.8D+00
   Bfn.  Coefficient  Atom+Function         Bfn.  Coefficient  Atom+Function  
  ----- ------------  ---------------      ----- ------------  ---------------
    67      1.549442   4 C  s                48     -1.180918   3 N  s         
    86     -1.180917   5 N  s                10      1.030899   1 C  s         
    31      0.983330   2 C  py              107      0.983094   6 C  py        
    30     -0.938225   2 C  px              106      0.938632   6 C  px        
   117      0.902237   7 H  s                63     -0.774086   4 C  s         

 Vector   46  Occ=0.000000D+00  E= 5.956958D-01
              MO Center=  9.5D-05,  3.5D-01,  4.8D-04, r^2= 7.6D+00
   Bfn.  Coefficient  Atom+Function         Bfn.  Coefficient  Atom+Function  
  ----- ------------  ---------------      ----- ------------  ---------------
    10      2.450103   1 C  s                69     -2.094352   4 C  py        
   123      1.685942   9 H  s                67     -1.663045   4 C  s         
    30     -1.613616   2 C  px              106      1.613581   6 C  px        
   120     -1.059725   8 H  s               126     -1.059779  10 H  s         
    63      0.600264   4 C  s                65      0.589131   4 C  py        

 Vector   47  Occ=0.000000D+00  E= 6.375239D-01
              MO Center= -1.6D-04, -9.8D-01,  1.3D-03, r^2= 5.1D+00
   Bfn.  Coefficient  Atom+Function         Bfn.  Coefficient  Atom+Function  
  ----- ------------  ---------------      ----- ------------  ---------------
    12      3.401815   1 C  py              117      1.968087   7 H  s         
    67     -1.529268   4 C  s                29     -1.325772   2 C  s         
   105     -1.325816   6 C  s                69     -1.207479   4 C  py        
    30     -1.023606   2 C  px              106      1.023348   6 C  px        
   123      0.974671   9 H  s                 8     -0.866699   1 C  py        

 Vector   48  Occ=0.000000D+00  E= 6.448535D-01
              MO Center= -4.9D-05, -3.6D-01, -2.6D-04, r^2= 5.6D+00
   Bfn.  Coefficient  Atom+Function         Bfn.  Coefficient  Atom+Function  
  ----- ------------  ---------------      ----- ------------  ---------------
    29      3.254621   2 C  s               105     -3.254554   6 C  s         
    11      2.854425   1 C  px               31     -1.975893   2 C  py        
   107      1.976114   6 C  py              120     -1.068323   8 H  s         
   126      1.068324  10 H  s                25     -0.846532   2 C  s         
   101      0.846539   6 C  s                30     -0.633801   2 C  px        

 Vector   49  Occ=0.000000D+00  E= 6.842501D-01
              MO Center=  1.7D-04,  7.0D-01, -1.1D-04, r^2= 4.8D+00
   Bfn.  Coefficient  Atom+Function         Bfn.  Coefficient  Atom+Function  
  ----- ------------  ---------------      ----- ------------  ---------------
    12      1.227882   1 C  py               30     -0.964931   2 C  px        
   106      0.964715   6 C  px               50     -0.948981   3 N  py        
    88     -0.948663   5 N  py               49      0.893954   3 N  px        
    87     -0.894329   5 N  px               63     -0.658292   4 C  s         
    31     -0.594956   2 C  py              107     -0.595195   6 C  py        

 Vector   50  Occ=0.000000D+00  E= 6.899500D-01
              MO Center=  3.6D-05,  1.4D-01, -9.6D-05, r^2= 6.0D+00
   Bfn.  Coefficient  Atom+Function         Bfn.  Coefficient  Atom+Function  
  ----- ------------  ---------------      ----- ------------  ---------------
    30      1.634651   2 C  px              106     -1.634357   6 C  px        
    67     -1.545328   4 C  s                69     -1.430443   4 C  py        
    12     -1.383855   1 C  py              123      1.159272   9 H  s         
   120      1.146066   8 H  s               126      1.146077  10 H  s         
    31      0.966632   2 C  py              107      0.967153   6 C  py        

 Vector   51  Occ=0.000000D+00  E= 6.921461D-01
              MO Center= -7.4D-05, -1.3D-01,  8.0D-05, r^2= 4.3D+00
   Bfn.  Coefficient  Atom+Function         Bfn.  Coefficient  Atom+Function  
  ----- ------------  ---------------      ----- ------------  ---------------
    29      1.873825   2 C  s               105     -1.873883   6 C  s         
    11      1.361197   1 C  px               49      0.930844   3 N  px        
    87      0.930705   5 N  px                7     -0.572124   1 C  px        
    30      0.524777   2 C  px              106      0.524851   6 C  px        
    64      0.477946   4 C  px               25     -0.455564   2 C  s         

 Vector   52  Occ=0.000000D+00  E= 7.046399D-01
              MO Center=  1.3D-04,  7.3D-01, -2.5D-04, r^2= 3.8D+00
   Bfn.  Coefficient  Atom+Function         Bfn.  Coefficient  Atom+Function  
  ----- ------------  ---------------      ----- ------------  ---------------
    51      1.103264   3 N  pz               89     -1.103268   5 N  pz        
    47     -0.613801   3 N  pz               85      0.613803   5 N  pz        
    32     -0.492279   2 C  pz              108      0.492279   6 C  pz        
    43     -0.169473   3 N  pz               81      0.169473   5 N  pz        
    73      0.114572   4 C  dxz              28      0.076657   2 C  pz        

 Vector   53  Occ=0.000000D+00  E= 7.651834D-01
              MO Center= -2.9D-05, -6.3D-01,  2.6D-04, r^2= 4.6D+00
   Bfn.  Coefficient  Atom+Function         Bfn.  Coefficient  Atom+Function  
  ----- ------------  ---------------      ----- ------------  ---------------
    10      8.478444   1 C  s                29     -4.296069   2 C  s         
   105     -4.296332   6 C  s                69      1.642096   4 C  py        
    30     -1.550836   2 C  px              106      1.551314   6 C  px        
    12      1.539112   1 C  py                6     -1.431918   1 C  s         
    31      1.386533   2 C  py              107      1.386181   6 C  py        

 Vector   54  Occ=0.000000D+00  E= 7.813104D-01
              MO Center= -7.9D-05, -1.6D-01,  2.3D-04, r^2= 5.3D+00
   Bfn.  Coefficient  Atom+Function         Bfn.  Coefficient  Atom+Function  
  ----- ------------  ---------------      ----- ------------  ---------------
    29      4.501808   2 C  s               105     -4.501454   6 C  s         
    11      4.328551   1 C  px               31     -2.289964   2 C  py        
   107      2.289612   6 C  py               49     -0.902382   3 N  px        
    87     -0.902597   5 N  px               50      0.879809   3 N  py        
    88     -0.879470   5 N  py               30      0.812576   2 C  px        

 Vector   55  Occ=0.000000D+00  E= 7.923552D-01
              MO Center= -3.9D-05, -2.3D-01, -1.4D-02, r^2= 4.7D+00
   Bfn.  Coefficient  Atom+Function         Bfn.  Coefficient  Atom+Function  
  ----- ------------  ---------------      ----- ------------  ---------------
    12      3.611595   1 C  py               69      2.830843   4 C  py        
   116      1.553456   7 H  s                67     -1.300443   4 C  s         
   122     -1.068785   9 H  s                48      1.045798   3 N  s         
    86      1.045805   5 N  s               117      0.996021   7 H  s         
   123     -0.745677   9 H  s                25     -0.607722   2 C  s         

 Vector   56  Occ=0.000000D+00  E= 7.993726D-01
              MO Center=  1.1D-04,  6.9D-01,  1.2D-02, r^2= 4.4D+00
   Bfn.  Coefficient  Atom+Function         Bfn.  Coefficient  Atom+Function  
  ----- ------------  ---------------      ----- ------------  ---------------
    51      1.504426   3 N  pz               89      1.504420   5 N  pz        
    70     -1.057163   4 C  pz               32     -0.774906   2 C  pz        
   108     -0.774902   6 C  pz               13      0.680004   1 C  pz        
    47     -0.627747   3 N  pz               85     -0.627744   5 N  pz        
    43     -0.162813   3 N  pz               81     -0.162813   5 N  pz        

 Vector   57  Occ=0.000000D+00  E= 8.380959D-01
              MO Center= -6.5D-06, -4.7D-02,  1.1D-03, r^2= 5.5D+00
   Bfn.  Coefficient  Atom+Function         Bfn.  Coefficient  Atom+Function  
  ----- ------------  ---------------      ----- ------------  ---------------
    30      3.713777   2 C  px              106      3.713189   6 C  px        
    31      1.761822   2 C  py              107     -1.762974   6 C  py        
    29      1.471566   2 C  s               105     -1.471517   6 C  s         
   119      1.419863   8 H  s               125     -1.419857  10 H  s         
    68      1.303452   4 C  px              120      1.004536   8 H  s         

 Vector   58  Occ=0.000000D+00  E= 8.984731D-01
              MO Center=  2.6D-05,  6.2D-02, -4.5D-04, r^2= 5.4D+00
   Bfn.  Coefficient  Atom+Function         Bfn.  Coefficient  Atom+Function  
  ----- ------------  ---------------      ----- ------------  ---------------
    12      6.360002   1 C  py               29     -6.099485   2 C  s         
   105     -6.099611   6 C  s                67      5.820504   4 C  s         
    10      5.479866   1 C  s                31     -2.826759   2 C  py        
   107     -2.827533   6 C  py               30     -2.502482   2 C  px        
   106      2.501612   6 C  px               69     -2.170520   4 C  py        

 Vector   59  Occ=0.000000D+00  E= 1.002691D+00
              MO Center=  5.5D-05,  4.8D-01, -6.7D-04, r^2= 5.4D+00
   Bfn.  Coefficient  Atom+Function         Bfn.  Coefficient  Atom+Function  
  ----- ------------  ---------------      ----- ------------  ---------------
    68      3.647361   4 C  px               50      3.589984   3 N  py        
    88     -3.590504   5 N  py               31      3.118526   2 C  py        
   107     -3.117968   6 C  py               11     -2.828101   1 C  px        
    49      1.793419   3 N  px               87      1.792200   5 N  px        
    30     -1.684124   2 C  px              106     -1.685043   6 C  px        

 Vector   60  Occ=0.000000D+00  E= 1.028960D+00
              MO Center=  9.6D-05,  4.2D-01, -1.0D-03, r^2= 5.6D+00
   Bfn.  Coefficient  Atom+Function         Bfn.  Coefficient  Atom+Function  
  ----- ------------  ---------------      ----- ------------  ---------------
    10      9.099847   1 C  s                12      5.260571   1 C  py        
    30     -4.932094   2 C  px              106      4.931991   6 C  px        
    29     -4.151362   2 C  s               105     -4.151416   6 C  s         
    69     -4.014944   4 C  py               50      1.770271   3 N  py        
    88      1.770747   5 N  py              122      1.544185   9 H  s         

 Vector   61  Occ=0.000000D+00  E= 1.046432D+00
              MO Center= -7.1D-05, -5.8D-01,  3.8D-04, r^2= 2.3D+00
   Bfn.  Coefficient  Atom+Function         Bfn.  Coefficient  Atom+Function  
  ----- ------------  ---------------      ----- ------------  ---------------
    18      0.883541   1 C  dyz              35      0.705578   2 C  dxz       
   111     -0.705507   6 C  dxz              75     -0.571302   4 C  dyz       
    37      0.319333   2 C  dyz             113      0.319521   6 C  dyz       
    54      0.154589   3 N  dxz              92     -0.154620   5 N  dxz       
     9     -0.144161   1 C  pz               51     -0.116971   3 N  pz        

 Vector   62  Occ=0.000000D+00  E= 1.057685D+00
              MO Center= -7.3D-05, -4.4D-01,  1.0D-05, r^2= 2.3D+00
   Bfn.  Coefficient  Atom+Function         Bfn.  Coefficient  Atom+Function  
  ----- ------------  ---------------      ----- ------------  ---------------
    16      0.768819   1 C  dxz              37      0.573700   2 C  dyz       
   113     -0.573584   6 C  dyz              73      0.545912   4 C  dxz       
    35     -0.433886   2 C  dxz             111     -0.434024   6 C  dxz       
    56     -0.203397   3 N  dyz              94      0.203441   5 N  dyz       
    54     -0.116676   3 N  dxz              92     -0.116599   5 N  dxz       

 Vector   63  Occ=0.000000D+00  E= 1.117268D+00
              MO Center=  1.7D-05,  1.7D-01, -4.7D-04, r^2= 3.8D+00
   Bfn.  Coefficient  Atom+Function         Bfn.  Coefficient  Atom+Function  
  ----- ------------  ---------------      ----- ------------  ---------------
    10      6.439035   1 C  s                48      6.238307   3 N  s         
    86      6.238136   5 N  s                29     -5.262332   2 C  s         
   105     -5.262295   6 C  s                12      3.937806   1 C  py        
    67     -2.948376   4 C  s                30     -2.687224   2 C  px        
   106      2.686699   6 C  px               69      1.965291   4 C  py        

 Vector   64  Occ=0.000000D+00  E= 1.127713D+00
              MO Center=  1.5D-04,  7.6D-01,  1.9D-04, r^2= 4.0D+00
   Bfn.  Coefficient  Atom+Function         Bfn.  Coefficient  Atom+Function  
  ----- ------------  ---------------      ----- ------------  ---------------
    48      5.849514   3 N  s                86     -5.849694   5 N  s         
    68      2.532498   4 C  px               31     -1.892379   2 C  py        
   107      1.892926   6 C  py               30     -1.576125   2 C  px        
   106     -1.575598   6 C  px               49      1.527314   3 N  px        
    87      1.527322   5 N  px               44     -1.355916   3 N  s         

 Vector   65  Occ=0.000000D+00  E= 1.267101D+00
              MO Center= -4.8D-05, -1.9D-01, -4.1D-04, r^2= 2.5D+00
   Bfn.  Coefficient  Atom+Function         Bfn.  Coefficient  Atom+Function  
  ----- ------------  ---------------      ----- ------------  ---------------
    35      0.824205   2 C  dxz             111      0.824026   6 C  dxz       
    73      0.760267   4 C  dxz              37      0.466927   2 C  dyz       
   113     -0.467194   6 C  dyz              16     -0.394500   1 C  dxz       
    56     -0.240789   3 N  dyz              94      0.240818   5 N  dyz       
    28     -0.108699   2 C  pz              104      0.108688   6 C  pz        

 Vector   66  Occ=0.000000D+00  E= 1.269613D+00
              MO Center=  1.5D-04,  7.2D-01,  2.3D-04, r^2= 2.0D+00
   Bfn.  Coefficient  Atom+Function         Bfn.  Coefficient  Atom+Function  
  ----- ------------  ---------------      ----- ------------  ---------------
    75      1.446300   4 C  dyz              18      0.671394   1 C  dyz       
    70     -0.340868   4 C  pz               54     -0.244471   3 N  dxz       
    92      0.244522   5 N  dxz              51      0.193859   3 N  pz        
    89      0.193870   5 N  pz               35      0.182960   2 C  dxz       
   111     -0.183097   6 C  dxz              13      0.151445   1 C  pz        

 Vector   67  Occ=0.000000D+00  E= 1.295482D+00
              MO Center= -2.2D-05, -1.6D-01, -3.4D-04, r^2= 4.0D+00
   Bfn.  Coefficient  Atom+Function         Bfn.  Coefficient  Atom+Function  
  ----- ------------  ---------------      ----- ------------  ---------------
    48     -3.176897   3 N  s                86     -3.176842   5 N  s         
    29      2.951614   2 C  s               105      2.951636   6 C  s         
    12     -2.020435   1 C  py               67      1.853074   4 C  s         
    10     -1.549379   1 C  s               116     -0.977657   7 H  s         
    31      0.936842   2 C  py              107      0.936935   6 C  py        

 Vector   68  Occ=0.000000D+00  E= 1.341390D+00
              MO Center= -2.8D-05, -2.9D-01,  6.7D-04, r^2= 2.6D+00
   Bfn.  Coefficient  Atom+Function         Bfn.  Coefficient  Atom+Function  
  ----- ------------  ---------------      ----- ------------  ---------------
    37      1.048454   2 C  dyz             113      1.048452   6 C  dyz       
    18     -0.372066   1 C  dyz              75      0.360974   4 C  dyz       
    56     -0.344365   3 N  dyz              94     -0.344377   5 N  dyz       
    51     -0.224064   3 N  pz               89     -0.224072   5 N  pz        
     9      0.120725   1 C  pz               70      0.117455   4 C  pz        

 Vector   69  Occ=0.000000D+00  E= 1.376079D+00
              MO Center=  6.2D-05,  4.2D-01, -5.0D-05, r^2= 2.5D+00
   Bfn.  Coefficient  Atom+Function         Bfn.  Coefficient  Atom+Function  
  ----- ------------  ---------------      ----- ------------  ---------------
    73      1.123647   4 C  dxz              37     -0.569183   2 C  dyz       
   113      0.569286   6 C  dyz              16     -0.514653   1 C  dxz       
    54     -0.420461   3 N  dxz              92     -0.420472   5 N  dxz       
    35     -0.400503   2 C  dxz             111     -0.400323   6 C  dxz       
    51      0.284812   3 N  pz               89     -0.284804   5 N  pz        

 Vector   70  Occ=0.000000D+00  E= 1.499913D+00
              MO Center=  7.9D-05,  4.3D-01,  3.7D-04, r^2= 3.7D+00
   Bfn.  Coefficient  Atom+Function         Bfn.  Coefficient  Atom+Function  
  ----- ------------  ---------------      ----- ------------  ---------------
   122      1.410866   9 H  s               116     -1.021859   7 H  s         
    67     -0.870291   4 C  s                12     -0.844016   1 C  py        
    74     -0.805189   4 C  dyy              29      0.793902   2 C  s         
   105      0.793920   6 C  s                17      0.541807   1 C  dyy       
    69     -0.530587   4 C  py               76      0.488205   4 C  dzz       

 Vector   71  Occ=0.000000D+00  E= 1.529183D+00
              MO Center= -1.0D-04, -6.8D-01, -5.2D-05, r^2= 3.4D+00
   Bfn.  Coefficient  Atom+Function         Bfn.  Coefficient  Atom+Function  
  ----- ------------  ---------------      ----- ------------  ---------------
   119     -1.246391   8 H  s               125      1.246407  10 H  s         
    29      1.156705   2 C  s               105     -1.156677   6 C  s         
    33      0.586237   2 C  dxx             109     -0.586091   6 C  dxx       
    31     -0.489270   2 C  py              107      0.489385   6 C  py        
    15     -0.465038   1 C  dxy              34      0.455668   2 C  dxy       

 Vector   72  Occ=0.000000D+00  E= 1.557556D+00
              MO Center= -4.1D-05, -3.8D-01,  2.3D-04, r^2= 2.8D+00
   Bfn.  Coefficient  Atom+Function         Bfn.  Coefficient  Atom+Function  
  ----- ------------  ---------------      ----- ------------  ---------------
    10      2.199049   1 C  s                12      1.801769   1 C  py        
    29     -1.283306   2 C  s               105     -1.283327   6 C  s         
    48      1.255875   3 N  s                86      1.255911   5 N  s         
    67     -0.734660   4 C  s                 6     -0.658091   1 C  s         
    19     -0.612029   1 C  dzz              34     -0.503676   2 C  dxy       

 Vector   73  Occ=0.000000D+00  E= 1.569284D+00
              MO Center= -9.0D-05, -5.9D-01,  3.4D-04, r^2= 2.9D+00
   Bfn.  Coefficient  Atom+Function         Bfn.  Coefficient  Atom+Function  
  ----- ------------  ---------------      ----- ------------  ---------------
    11      1.523799   1 C  px               15      0.977021   1 C  dxy       
    68     -0.978927   4 C  px               50     -0.932832   3 N  py        
    88      0.932945   5 N  py               34      0.831282   2 C  dxy       
   110      0.831007   6 C  dxy              31     -0.535867   2 C  py        
   107      0.535871   6 C  py               29      0.528278   2 C  s         

 Vector   74  Occ=0.000000D+00  E= 1.714947D+00
              MO Center= -7.4D-05, -4.6D-01,  4.8D-04, r^2= 4.0D+00
   Bfn.  Coefficient  Atom+Function         Bfn.  Coefficient  Atom+Function  
  ----- ------------  ---------------      ----- ------------  ---------------
   116      1.354896   7 H  s                10     -0.956424   1 C  s         
    69      0.795528   4 C  py               67     -0.776492   4 C  s         
    34      0.742234   2 C  dxy             110     -0.742003   6 C  dxy       
    12      0.641397   1 C  py              119     -0.618728   8 H  s         
   125     -0.618721  10 H  s               122      0.517403   9 H  s         

 Vector   75  Occ=0.000000D+00  E= 1.762992D+00
              MO Center=  1.2D-04,  7.2D-01, -1.8D-04, r^2= 2.6D+00
   Bfn.  Coefficient  Atom+Function         Bfn.  Coefficient  Atom+Function  
  ----- ------------  ---------------      ----- ------------  ---------------
    72      1.579867   4 C  dxy              30     -1.160012   2 C  px        
   106     -1.160157   6 C  px               29     -0.719882   2 C  s         
   105      0.719923   6 C  s                88     -0.700107   5 N  py        
    49      0.696598   3 N  px               50      0.699891   3 N  py        
    87      0.696376   5 N  px               11     -0.640263   1 C  px        

 Vector   76  Occ=0.000000D+00  E= 1.826558D+00
              MO Center= -1.2D-04, -8.5D-01,  4.2D-04, r^2= 2.2D+00
   Bfn.  Coefficient  Atom+Function         Bfn.  Coefficient  Atom+Function  
  ----- ------------  ---------------      ----- ------------  ---------------
    18      1.469356   1 C  dyz              35     -1.102336   2 C  dxz       
   111      1.102420   6 C  dxz              13      0.673848   1 C  pz        
    32     -0.426452   2 C  pz              108     -0.426454   6 C  pz        
    75     -0.394442   4 C  dyz              37      0.234054   2 C  dyz       
   113      0.233704   6 C  dyz               5      0.201330   1 C  pz        

 Vector   77  Occ=0.000000D+00  E= 1.859691D+00
              MO Center=  7.3D-05,  4.1D-01,  1.8D-04, r^2= 2.8D+00
   Bfn.  Coefficient  Atom+Function         Bfn.  Coefficient  Atom+Function  
  ----- ------------  ---------------      ----- ------------  ---------------
    67      1.872355   4 C  s                69     -1.307038   4 C  py        
    76     -0.920061   4 C  dzz              71      0.764604   4 C  dxx       
    19      0.701671   1 C  dzz              29     -0.648978   2 C  s         
   105     -0.649016   6 C  s                30     -0.602519   2 C  px        
   106      0.602353   6 C  px               31     -0.580012   2 C  py        

 Vector   78  Occ=0.000000D+00  E= 1.888238D+00
              MO Center= -4.1D-05, -3.0D-01,  5.4D-04, r^2= 2.8D+00
   Bfn.  Coefficient  Atom+Function         Bfn.  Coefficient  Atom+Function  
  ----- ------------  ---------------      ----- ------------  ---------------
    29      2.013322   2 C  s               105     -2.013349   6 C  s         
    30      0.958859   2 C  px              106      0.958655   6 C  px        
    38     -0.771954   2 C  dzz             114      0.771953   6 C  dzz       
    72      0.724908   4 C  dxy              31      0.686090   2 C  py        
   107     -0.686404   6 C  py               34     -0.636740   2 C  dxy       

 Vector   79  Occ=0.000000D+00  E= 1.949230D+00
              MO Center= -1.1D-04, -6.7D-01, -3.3D-05, r^2= 2.4D+00
   Bfn.  Coefficient  Atom+Function         Bfn.  Coefficient  Atom+Function  
  ----- ------------  ---------------      ----- ------------  ---------------
    16      1.639037   1 C  dxz              35      0.840896   2 C  dxz       
   111      0.841048   6 C  dxz              37     -0.512916   2 C  dyz       
   113      0.512637   6 C  dyz              73      0.447809   4 C  dxz       
    56      0.412955   3 N  dyz              94     -0.412935   5 N  dyz       
    32      0.236633   2 C  pz              108     -0.236629   6 C  pz        

 Vector   80  Occ=0.000000D+00  E= 1.956098D+00
              MO Center= -1.3D-04, -8.9D-01,  3.2D-04, r^2= 3.1D+00
   Bfn.  Coefficient  Atom+Function         Bfn.  Coefficient  Atom+Function  
  ----- ------------  ---------------      ----- ------------  ---------------
    10      2.310171   1 C  s               116     -1.104121   7 H  s         
    29     -1.081219   2 C  s               105     -1.081210   6 C  s         
    31      0.923115   2 C  py              107      0.923012   6 C  py        
   119      0.815349   8 H  s               125      0.815360  10 H  s         
    33     -0.750483   2 C  dxx             109     -0.750646   6 C  dxx       

 Vector   81  Occ=0.000000D+00  E= 2.134952D+00
              MO Center=  5.5D-05,  4.4D-01,  4.0D-05, r^2= 4.7D+00
   Bfn.  Coefficient  Atom+Function         Bfn.  Coefficient  Atom+Function  
  ----- ------------  ---------------      ----- ------------  ---------------
   122      1.359175   9 H  s                12     -0.799470   1 C  py        
   121     -0.717985   9 H  s               119      0.699360   8 H  s         
   125      0.699330  10 H  s                69     -0.610769   4 C  py        
   118     -0.429496   8 H  s               124     -0.429484  10 H  s         
   117     -0.409551   7 H  s                61      0.407472   4 C  py        

 Vector   82  Occ=0.000000D+00  E= 2.219916D+00
              MO Center= -5.1D-05, -4.0D-01,  2.7D-06, r^2= 3.8D+00
   Bfn.  Coefficient  Atom+Function         Bfn.  Coefficient  Atom+Function  
  ----- ------------  ---------------      ----- ------------  ---------------
    11      1.524131   1 C  px              119     -1.131911   8 H  s         
   125      1.131911  10 H  s                15      0.907257   1 C  dxy       
    31     -0.847494   2 C  py              107      0.847530   6 C  py        
    29      0.778911   2 C  s               105     -0.778841   6 C  s         
   118      0.527638   8 H  s               124     -0.527634  10 H  s         

 Vector   83  Occ=0.000000D+00  E= 2.235330D+00
              MO Center= -1.0D-04, -6.3D-01,  3.0D-04, r^2= 2.9D+00
   Bfn.  Coefficient  Atom+Function         Bfn.  Coefficient  Atom+Function  
  ----- ------------  ---------------      ----- ------------  ---------------
    15      1.956759   1 C  dxy              11      1.797605   1 C  px        
    29      1.431805   2 C  s               105     -1.431654   6 C  s         
    30      0.944357   2 C  px              106      0.944528   6 C  px        
    34     -0.784685   2 C  dxy             110     -0.784038   6 C  dxy       
    31     -0.756957   2 C  py               48      0.755766   3 N  s         

 Vector   84  Occ=0.000000D+00  E= 2.254816D+00
              MO Center=  1.3D-04,  7.7D-01, -2.1D-04, r^2= 2.1D+00
   Bfn.  Coefficient  Atom+Function         Bfn.  Coefficient  Atom+Function  
  ----- ------------  ---------------      ----- ------------  ---------------
    54      0.934984   3 N  dxz              92     -0.934805   5 N  dxz       
    75      0.621690   4 C  dyz              62     -0.598211   4 C  pz        
    56      0.504085   3 N  dyz              94      0.504401   5 N  dyz       
    70     -0.501745   4 C  pz               66      0.438331   4 C  pz        
    37      0.314104   2 C  dyz             113      0.314035   6 C  dyz       

 Vector   85  Occ=0.000000D+00  E= 2.285746D+00
              MO Center= -1.2D-04, -7.3D-01,  4.8D-04, r^2= 3.2D+00
   Bfn.  Coefficient  Atom+Function         Bfn.  Coefficient  Atom+Function  
  ----- ------------  ---------------      ----- ------------  ---------------
    10      6.375227   1 C  s                29     -4.729017   2 C  s         
   105     -4.729062   6 C  s                12      3.791087   1 C  py        
    30     -2.379633   2 C  px              106      2.379360   6 C  px        
    67      1.629607   4 C  s                69     -1.290913   4 C  py        
   116      0.993621   7 H  s                31     -0.953570   2 C  py        

 Vector   86  Occ=0.000000D+00  E= 2.294640D+00
              MO Center=  8.7D-05,  4.2D-01, -2.0D-04, r^2= 2.6D+00
   Bfn.  Coefficient  Atom+Function         Bfn.  Coefficient  Atom+Function  
  ----- ------------  ---------------      ----- ------------  ---------------
    54      0.974613   3 N  dxz              92      0.974840   5 N  dxz       
    73      0.805107   4 C  dxz              37     -0.766195   2 C  dyz       
   113      0.766205   6 C  dyz              56     -0.639650   3 N  dyz       
    94      0.639333   5 N  dyz              16      0.443415   1 C  dxz       
    51      0.366272   3 N  pz               89     -0.366279   5 N  pz        

 Vector   87  Occ=0.000000D+00  E= 2.315741D+00
              MO Center= -1.0D-04, -7.7D-01,  9.0D-04, r^2= 4.3D+00
   Bfn.  Coefficient  Atom+Function         Bfn.  Coefficient  Atom+Function  
  ----- ------------  ---------------      ----- ------------  ---------------
   116      1.402804   7 H  s               115     -0.889962   7 H  s         
   122     -0.880069   9 H  s                10      0.683807   1 C  s         
    12      0.628773   1 C  py                8      0.604728   1 C  py        
   119      0.525883   8 H  s               125      0.525909  10 H  s         
   121      0.518560   9 H  s                 4     -0.506266   1 C  py        

 Vector   88  Occ=0.000000D+00  E= 2.351319D+00
              MO Center=  2.4D-05,  1.3D-01, -2.3D-04, r^2= 2.7D+00
   Bfn.  Coefficient  Atom+Function         Bfn.  Coefficient  Atom+Function  
  ----- ------------  ---------------      ----- ------------  ---------------
    56      0.932954   3 N  dyz              94      0.932802   5 N  dyz       
    37      0.635582   2 C  dyz             113      0.635608   6 C  dyz       
    54     -0.468230   3 N  dxz              92      0.468521   5 N  dxz       
    24      0.444513   2 C  pz              100      0.444512   6 C  pz        
    75     -0.403230   4 C  dyz              51     -0.386079   3 N  pz        

 Vector   89  Occ=0.000000D+00  E= 2.576154D+00
              MO Center=  1.3D-04,  9.1D-01, -3.8D-04, r^2= 2.6D+00
   Bfn.  Coefficient  Atom+Function         Bfn.  Coefficient  Atom+Function  
  ----- ------------  ---------------      ----- ------------  ---------------
    48      1.982077   3 N  s                86      1.982026   5 N  s         
    67     -1.947961   4 C  s                29     -1.120868   2 C  s         
   105     -1.120817   6 C  s                63     -0.888361   4 C  s         
   122     -0.861064   9 H  s                76      0.834306   4 C  dzz       
    69      0.716015   4 C  py               25     -0.635554   2 C  s         

 Vector   90  Occ=0.000000D+00  E= 2.578548D+00
              MO Center=  4.1D-05,  1.1D-01, -2.7D-04, r^2= 3.5D+00
   Bfn.  Coefficient  Atom+Function         Bfn.  Coefficient  Atom+Function  
  ----- ------------  ---------------      ----- ------------  ---------------
    48     -2.027267   3 N  s                86      2.027322   5 N  s         
    29      1.862615   2 C  s               105     -1.862675   6 C  s         
    30      0.960793   2 C  px              106      0.960695   6 C  px        
    49     -0.826387   3 N  px               87     -0.826512   5 N  px        
   119      0.800158   8 H  s               125     -0.800160  10 H  s         

 Vector   91  Occ=0.000000D+00  E= 2.659094D+00
              MO Center= -8.9D-05, -5.8D-01,  2.4D-04, r^2= 2.3D+00
   Bfn.  Coefficient  Atom+Function         Bfn.  Coefficient  Atom+Function  
  ----- ------------  ---------------      ----- ------------  ---------------
     9      1.010796   1 C  pz                5     -0.884683   1 C  pz        
    56      0.594507   3 N  dyz              94      0.594447   5 N  dyz       
    28      0.538428   2 C  pz              104      0.538410   6 C  pz        
    37      0.500828   2 C  dyz             113      0.500808   6 C  dyz       
    24     -0.479960   2 C  pz              100     -0.479945   6 C  pz        

 Vector   92  Occ=0.000000D+00  E= 2.667387D+00
              MO Center= -3.8D-06, -1.1D-01,  7.4D-05, r^2= 2.7D+00
   Bfn.  Coefficient  Atom+Function         Bfn.  Coefficient  Atom+Function  
  ----- ------------  ---------------      ----- ------------  ---------------
    73     -0.901057   4 C  dxz              16      0.857611   1 C  dxz       
    28      0.716410   2 C  pz              104     -0.716426   6 C  pz        
    54     -0.705225   3 N  dxz              92     -0.705051   5 N  dxz       
    24     -0.608045   2 C  pz              100      0.608059   6 C  pz        
    56     -0.574601   3 N  dyz              94      0.574805   5 N  dyz       

 Vector   93  Occ=0.000000D+00  E= 2.762571D+00
              MO Center=  5.8D-05,  2.9D-01, -4.8D-05, r^2= 3.0D+00
   Bfn.  Coefficient  Atom+Function         Bfn.  Coefficient  Atom+Function  
  ----- ------------  ---------------      ----- ------------  ---------------
    67      1.671653   4 C  s                10     -1.048607   1 C  s         
    50     -0.971508   3 N  py               88     -0.971759   5 N  py        
    49     -0.828954   3 N  px               87      0.828646   5 N  px        
    53     -0.819399   3 N  dxy              91      0.820044   5 N  dxy       
    31     -0.763294   2 C  py              107     -0.763123   6 C  py        

 Vector   94  Occ=0.000000D+00  E= 2.792868D+00
              MO Center=  2.0D-04,  1.0D+00, -4.0D-04, r^2= 1.5D+00
   Bfn.  Coefficient  Atom+Function         Bfn.  Coefficient  Atom+Function  
  ----- ------------  ---------------      ----- ------------  ---------------
    66      1.427213   4 C  pz               62     -1.122414   4 C  pz        
    54     -0.689388   3 N  dxz              92      0.689297   5 N  dxz       
    70     -0.469133   4 C  pz               56     -0.357946   3 N  dyz       
    94     -0.358225   5 N  dyz              75     -0.309646   4 C  dyz       
    28     -0.225886   2 C  pz              104     -0.225941   6 C  pz        

 Vector   95  Occ=0.000000D+00  E= 2.800194D+00
              MO Center= -7.9D-06,  9.6D-02,  6.5D-04, r^2= 2.6D+00
   Bfn.  Coefficient  Atom+Function         Bfn.  Coefficient  Atom+Function  
  ----- ------------  ---------------      ----- ------------  ---------------
    56      0.973465   3 N  dyz              94     -0.973568   5 N  dyz       
    28      0.844738   2 C  pz              104     -0.844727   6 C  pz        
    73      0.755503   4 C  dxz              24     -0.662799   2 C  pz        
   100      0.662791   6 C  pz               37      0.444659   2 C  dyz       
   113     -0.444614   6 C  dyz              54      0.406257   3 N  dxz       

 Vector   96  Occ=0.000000D+00  E= 2.820589D+00
              MO Center=  5.6D-05,  2.1D-01, -9.2D-04, r^2= 2.7D+00
   Bfn.  Coefficient  Atom+Function         Bfn.  Coefficient  Atom+Function  
  ----- ------------  ---------------      ----- ------------  ---------------
    53      0.906401   3 N  dxy              91      0.905901   5 N  dxy       
    34      0.675188   2 C  dxy             110      0.675442   6 C  dxy       
    72      0.498224   4 C  dxy              48      0.476580   3 N  s         
    86     -0.476555   5 N  s                55      0.421803   3 N  dyy       
    93     -0.422127   5 N  dyy             119      0.375274   8 H  s         

 Vector   97  Occ=0.000000D+00  E= 2.871389D+00
              MO Center=  1.4D-04,  5.8D-01, -2.5D-04, r^2= 2.6D+00
   Bfn.  Coefficient  Atom+Function         Bfn.  Coefficient  Atom+Function  
  ----- ------------  ---------------      ----- ------------  ---------------
    68      1.215094   4 C  px               50      1.060258   3 N  py        
    88     -1.060400   5 N  py               31      1.030933   2 C  py        
   107     -1.030947   6 C  py               53      0.787050   3 N  dxy       
    91      0.787554   5 N  dxy              11     -0.725706   1 C  px        
    60      0.665976   4 C  px               55     -0.433437   3 N  dyy       

 Vector   98  Occ=0.000000D+00  E= 2.890635D+00
              MO Center= -5.3D-06,  1.8D-01,  2.5D-04, r^2= 3.3D+00
   Bfn.  Coefficient  Atom+Function         Bfn.  Coefficient  Atom+Function  
  ----- ------------  ---------------      ----- ------------  ---------------
    10      2.321014   1 C  s                29     -1.801500   2 C  s         
   105     -1.801495   6 C  s                12      1.304232   1 C  py        
    67      1.122161   4 C  s                69     -0.964698   4 C  py        
    74      0.836010   4 C  dyy             122      0.797161   9 H  s         
    30     -0.779218   2 C  px              106      0.779067   6 C  px        

 Vector   99  Occ=0.000000D+00  E= 2.919592D+00
              MO Center= -1.3D-04, -8.2D-01,  1.9D-04, r^2= 1.8D+00
   Bfn.  Coefficient  Atom+Function         Bfn.  Coefficient  Atom+Function  
  ----- ------------  ---------------      ----- ------------  ---------------
     9      1.248132   1 C  pz                5     -0.917860   1 C  pz        
    28     -0.869869   2 C  pz              104     -0.869861   6 C  pz        
    24      0.633025   2 C  pz              100      0.633020   6 C  pz        
    13     -0.579675   1 C  pz               18      0.446827   1 C  dyz       
    35     -0.405627   2 C  dxz             111      0.405622   6 C  dxz       

 Vector  100  Occ=0.000000D+00  E= 2.978080D+00
              MO Center= -1.0D-04, -5.8D-01,  6.7D-04, r^2= 2.8D+00
   Bfn.  Coefficient  Atom+Function         Bfn.  Coefficient  Atom+Function  
  ----- ------------  ---------------      ----- ------------  ---------------
    10      1.786985   1 C  s                67     -1.381961   4 C  s         
     6      1.334066   1 C  s                17     -1.064240   1 C  dyy       
    14     -0.979042   1 C  dxx              19     -0.982391   1 C  dzz       
    25      0.890271   2 C  s               101      0.890246   6 C  s         
    63     -0.865516   4 C  s                71      0.714138   4 C  dxx       

 Vector  101  Occ=0.000000D+00  E= 3.023165D+00
              MO Center= -1.1D-04, -7.8D-01,  4.1D-05, r^2= 2.4D+00
   Bfn.  Coefficient  Atom+Function         Bfn.  Coefficient  Atom+Function  
  ----- ------------  ---------------      ----- ------------  ---------------
    29      1.606126   2 C  s               105     -1.606079   6 C  s         
    25      1.310737   2 C  s               101     -1.310755   6 C  s         
    36     -1.149956   2 C  dyy             112      1.149950   6 C  dyy       
    33     -1.109070   2 C  dxx             109      1.109092   6 C  dxx       
    38     -0.895408   2 C  dzz             114      0.895416   6 C  dzz       

 Vector  102  Occ=0.000000D+00  E= 3.096278D+00
              MO Center=  1.3D-04,  7.4D-01,  1.9D-04, r^2= 3.2D+00
   Bfn.  Coefficient  Atom+Function         Bfn.  Coefficient  Atom+Function  
  ----- ------------  ---------------      ----- ------------  ---------------
    10      3.923612   1 C  s                29     -2.133594   2 C  s         
   105     -2.133590   6 C  s                48      1.362863   3 N  s         
    86      1.362844   5 N  s                74     -1.335313   4 C  dyy       
    12      1.269135   1 C  py               63      1.208599   4 C  s         
    71     -1.173967   4 C  dxx              69      1.070395   4 C  py        

 Vector  103  Occ=0.000000D+00  E= 3.159238D+00
              MO Center= -1.1D-04, -7.0D-01,  2.7D-04, r^2= 3.7D+00
   Bfn.  Coefficient  Atom+Function         Bfn.  Coefficient  Atom+Function  
  ----- ------------  ---------------      ----- ------------  ---------------
    12      1.305266   1 C  py               48      1.052500   3 N  s         
    86      1.052500   5 N  s                30     -1.031433   2 C  px        
   106      1.031168   6 C  px                6     -0.809509   1 C  s         
    31     -0.810962   2 C  py              107     -0.811264   6 C  py        
    33     -0.794904   2 C  dxx             109     -0.794882   6 C  dxx       

 Vector  104  Occ=0.000000D+00  E= 3.222750D+00
              MO Center= -1.0D-04, -7.9D-01,  3.9D-04, r^2= 2.6D+00
   Bfn.  Coefficient  Atom+Function         Bfn.  Coefficient  Atom+Function  
  ----- ------------  ---------------      ----- ------------  ---------------
    11      1.553496   1 C  px               31     -1.530248   2 C  py        
   107      1.530571   6 C  py               30     -1.052452   2 C  px        
   106     -1.051971   6 C  px               48      0.980646   3 N  s         
    86     -0.980659   5 N  s                 7     -0.943764   1 C  px        
    50     -0.923999   3 N  py               88      0.924018   5 N  py        

 Vector  105  Occ=0.000000D+00  E= 3.265266D+00
              MO Center= -2.0D-04, -1.2D+00,  8.1D-04, r^2= 1.6D+00
   Bfn.  Coefficient  Atom+Function         Bfn.  Coefficient  Atom+Function  
  ----- ------------  ---------------      ----- ------------  ---------------
    12      2.574351   1 C  py              116      1.179490   7 H  s         
    29     -1.135150   2 C  s               105     -1.135204   6 C  s         
     8     -1.102355   1 C  py                4      0.966399   1 C  py        
   115     -0.807093   7 H  s                31     -0.637139   2 C  py        
   107     -0.637203   6 C  py               26     -0.616687   2 C  px        

 Vector  106  Occ=0.000000D+00  E= 3.353041D+00
              MO Center=  4.1D-05,  2.0D-01, -3.7D-05, r^2= 3.1D+00
   Bfn.  Coefficient  Atom+Function         Bfn.  Coefficient  Atom+Function  
  ----- ------------  ---------------      ----- ------------  ---------------
    10      2.961561   1 C  s                12      2.118268   1 C  py        
    29     -2.064197   2 C  s               105     -2.064262   6 C  s         
    30     -1.432690   2 C  px              106      1.432537   6 C  px        
    65      1.149302   4 C  py               48      1.126891   3 N  s         
    86      1.126933   5 N  s               116      0.852648   7 H  s         

 Vector  107  Occ=0.000000D+00  E= 3.421761D+00
              MO Center= -1.2D-05, -8.6D-02, -8.2D-05, r^2= 2.9D+00
   Bfn.  Coefficient  Atom+Function         Bfn.  Coefficient  Atom+Function  
  ----- ------------  ---------------      ----- ------------  ---------------
    50      1.352374   3 N  py               88     -1.352412   5 N  py        
    27      1.331505   2 C  py              103     -1.331633   6 C  py        
    36      0.991053   2 C  dyy             112     -0.990938   6 C  dyy       
    68      0.949728   4 C  px               29      0.862749   2 C  s         
   105     -0.862649   6 C  s                30     -0.846971   2 C  px        

 Vector  108  Occ=0.000000D+00  E= 3.486474D+00
              MO Center=  9.1D-05,  4.9D-01, -2.4D-04, r^2= 2.7D+00
   Bfn.  Coefficient  Atom+Function         Bfn.  Coefficient  Atom+Function  
  ----- ------------  ---------------      ----- ------------  ---------------
    10      3.272497   1 C  s                69     -2.312493   4 C  py        
    30     -1.862327   2 C  px              106      1.862150   6 C  px        
    12      1.657328   1 C  py               29     -1.605238   2 C  s         
   105     -1.605222   6 C  s                27      1.193926   2 C  py        
   103      1.193973   6 C  py               65      1.180837   4 C  py        

 Vector  109  Occ=0.000000D+00  E= 3.536844D+00
              MO Center=  1.6D-04,  8.7D-01, -3.5D-04, r^2= 1.8D+00
   Bfn.  Coefficient  Atom+Function         Bfn.  Coefficient  Atom+Function  
  ----- ------------  ---------------      ----- ------------  ---------------
    64      2.483864   4 C  px               48      1.551009   3 N  s         
    86     -1.551049   5 N  s                49      1.409034   3 N  px        
    87      1.408841   5 N  px               30     -1.367680   2 C  px        
   106     -1.367797   6 C  px               72     -1.306630   4 C  dxy       
    60     -1.086487   4 C  px               68      0.781636   4 C  px        

 Vector  110  Occ=0.000000D+00  E= 3.644516D+00
              MO Center=  6.0D-05,  3.7D-01, -1.4D-04, r^2= 2.7D+00
   Bfn.  Coefficient  Atom+Function         Bfn.  Coefficient  Atom+Function  
  ----- ------------  ---------------      ----- ------------  ---------------
    48      2.738285   3 N  s                86      2.738239   5 N  s         
    67     -1.709715   4 C  s                71     -1.521850   4 C  dxx       
    10      1.327405   1 C  s                29     -1.299572   2 C  s         
   105     -1.299552   6 C  s                36     -1.052474   2 C  dyy       
   112     -1.052235   6 C  dyy              49      0.891174   3 N  px        

 Vector  111  Occ=0.000000D+00  E= 3.823825D+00
              MO Center=  1.4D-04,  7.2D-01, -4.5D-04, r^2= 2.0D+00
   Bfn.  Coefficient  Atom+Function         Bfn.  Coefficient  Atom+Function  
  ----- ------------  ---------------      ----- ------------  ---------------
    47      1.092976   3 N  pz               85     -1.092988   5 N  pz        
    43     -0.913822   3 N  pz               81      0.913832   5 N  pz        
    51     -0.452826   3 N  pz               89      0.452833   5 N  pz        
    73      0.381840   4 C  dxz              37     -0.196427   2 C  dyz       
   113      0.196423   6 C  dyz              32      0.150766   2 C  pz        

 Vector  112  Occ=0.000000D+00  E= 3.873137D+00
              MO Center=  1.0D-04,  6.7D-01, -3.9D-04, r^2= 2.1D+00
   Bfn.  Coefficient  Atom+Function         Bfn.  Coefficient  Atom+Function  
  ----- ------------  ---------------      ----- ------------  ---------------
    47      1.117133   3 N  pz               85      1.117121   5 N  pz        
    43     -0.912030   3 N  pz               81     -0.912020   5 N  pz        
    51     -0.640505   3 N  pz               89     -0.640500   5 N  pz        
    70      0.401783   4 C  pz               66     -0.293564   4 C  pz        
    32      0.280299   2 C  pz              108      0.280297   6 C  pz        

 Vector  113  Occ=0.000000D+00  E= 4.124470D+00
              MO Center= -1.4D-04, -8.6D-01,  4.5D-04, r^2= 1.7D+00
   Bfn.  Coefficient  Atom+Function         Bfn.  Coefficient  Atom+Function  
  ----- ------------  ---------------      ----- ------------  ---------------
     8      2.558092   1 C  py               14      2.388469   1 C  dxx       
    26     -1.894132   2 C  px              102      1.894581   6 C  px        
    12     -1.516411   1 C  py               27      1.354322   2 C  py        
   103      1.353689   6 C  py               34      1.308349   2 C  dxy       
   110     -1.307749   6 C  dxy              33     -1.279680   2 C  dxx       

 Vector  114  Occ=0.000000D+00  E= 4.139821D+00
              MO Center=  1.5D-04,  7.9D-01, -4.4D-04, r^2= 2.6D+00
   Bfn.  Coefficient  Atom+Function         Bfn.  Coefficient  Atom+Function  
  ----- ------------  ---------------      ----- ------------  ---------------
    48      2.890699   3 N  s                86     -2.890783   5 N  s         
    68      1.155030   4 C  px                7     -0.962758   1 C  px        
    64      0.934448   4 C  px               72     -0.826505   4 C  dxy       
    57     -0.819732   3 N  dzz              95      0.819747   5 N  dzz       
    45      0.799824   3 N  px               83      0.800066   5 N  px        

 Vector  115  Occ=0.000000D+00  E= 4.249292D+00
              MO Center= -1.2D-04, -7.7D-01,  4.3D-04, r^2= 2.0D+00
   Bfn.  Coefficient  Atom+Function         Bfn.  Coefficient  Atom+Function  
  ----- ------------  ---------------      ----- ------------  ---------------
     7      3.955035   1 C  px               15      2.931274   1 C  dxy       
    26      1.953189   2 C  px              102      1.953610   6 C  px        
    34     -1.772569   2 C  dxy             110     -1.772116   6 C  dxy       
    27     -1.315403   2 C  py              103      1.314746   6 C  py        
    33      1.088144   2 C  dxx             109     -1.088712   6 C  dxx       

 Vector  116  Occ=0.000000D+00  E= 4.300248D+00
              MO Center=  9.2D-05,  5.5D-01, -4.6D-04, r^2= 2.5D+00
   Bfn.  Coefficient  Atom+Function         Bfn.  Coefficient  Atom+Function  
  ----- ------------  ---------------      ----- ------------  ---------------
    48      3.654699   3 N  s                86      3.654679   5 N  s         
    29     -2.362925   2 C  s               105     -2.362936   6 C  s         
    10      1.963647   1 C  s                12      1.729491   1 C  py        
    67     -1.560246   4 C  s                45      0.909570   3 N  px        
    83     -0.909710   5 N  px               65      0.879636   4 C  py        

 Vector  117  Occ=0.000000D+00  E= 4.918805D+00
              MO Center=  1.7D-04,  1.0D+00, -3.3D-04, r^2= 1.3D+00
   Bfn.  Coefficient  Atom+Function         Bfn.  Coefficient  Atom+Function  
  ----- ------------  ---------------      ----- ------------  ---------------
    71      1.674528   4 C  dxx              45     -1.295918   3 N  px        
    83      1.295602   5 N  px               52     -1.097480   3 N  dxx       
    90     -1.097266   5 N  dxx              65     -1.043110   4 C  py        
    46     -0.998264   3 N  py               84     -0.998676   5 N  py        
    44      0.803068   3 N  s                82      0.803070   5 N  s         

 Vector  118  Occ=0.000000D+00  E= 5.070611D+00
              MO Center=  6.2D-05,  1.9D-01, -2.6D-04, r^2= 2.1D+00
   Bfn.  Coefficient  Atom+Function         Bfn.  Coefficient  Atom+Function  
  ----- ------------  ---------------      ----- ------------  ---------------
    46      1.679102   3 N  py               84      1.679138   5 N  py        
    27      1.457681   2 C  py              103      1.457704   6 C  py        
    55     -1.412602   3 N  dyy              93     -1.412590   5 N  dyy       
    36      1.140249   2 C  dyy             112      1.140273   6 C  dyy       
    10      0.887874   1 C  s                29     -0.839618   2 C  s         

 Vector  119  Occ=0.000000D+00  E= 5.161752D+00
              MO Center=  5.4D-06,  1.2D-01, -1.7D-04, r^2= 2.1D+00
   Bfn.  Coefficient  Atom+Function         Bfn.  Coefficient  Atom+Function  
  ----- ------------  ---------------      ----- ------------  ---------------
    27      1.939318   2 C  py              103     -1.939029   6 C  py        
     7     -1.683555   1 C  px               46      1.550281   3 N  py        
    84     -1.550170   5 N  py               55     -1.512589   3 N  dyy       
    93      1.512561   5 N  dyy              15     -1.439348   1 C  dxy       
    36      1.007877   2 C  dyy             112     -1.008074   6 C  dyy       

 Vector  120  Occ=0.000000D+00  E= 5.275482D+00
              MO Center=  1.4D-04,  8.6D-01, -3.3D-04, r^2= 1.3D+00
   Bfn.  Coefficient  Atom+Function         Bfn.  Coefficient  Atom+Function  
  ----- ------------  ---------------      ----- ------------  ---------------
    64      2.804418   4 C  px               72     -2.372579   4 C  dxy       
    45      1.714844   3 N  px               83      1.714484   5 N  px        
    52      1.294367   3 N  dxx              90     -1.294145   5 N  dxx       
    46      1.129176   3 N  py               84     -1.129691   5 N  py        
    53      0.725579   3 N  dxy              91      0.726248   5 N  dxy       

 Vector  121  Occ=0.000000D+00  E= 2.646982D+01
              MO Center= -2.9D-04, -6.2D-01,  8.5D-05, r^2= 1.5D+00
   Bfn.  Coefficient  Atom+Function         Bfn.  Coefficient  Atom+Function  
  ----- ------------  ---------------      ----- ------------  ---------------
    21      1.815203   2 C  s                97     -1.814894   6 C  s         
    20     -1.493516   2 C  s                96      1.493261   6 C  s         
    25     -0.772555   2 C  s               101      0.772412   6 C  s         
    29     -0.570521   2 C  s               105      0.570344   6 C  s         
    36      0.499763   2 C  dyy             112     -0.499685   6 C  dyy       

 Vector  122  Occ=0.000000D+00  E= 2.647200D+01
              MO Center=  2.8D-04,  3.9D-01,  1.7D-04, r^2= 1.7D+00
   Bfn.  Coefficient  Atom+Function         Bfn.  Coefficient  Atom+Function  
  ----- ------------  ---------------      ----- ------------  ---------------
    59      2.046144   4 C  s                58     -1.682795   4 C  s         
     2     -1.370594   1 C  s                 1      1.128858   1 C  s         
    63     -0.877385   4 C  s                 6      0.624386   1 C  s         
    71      0.581336   4 C  dxx              74      0.518133   4 C  dyy       
    21     -0.510646   2 C  s                97     -0.511772   6 C  s         

 Vector  123  Occ=0.000000D+00  E= 2.651083D+01
              MO Center= -2.7D-05, -2.0D-01,  1.3D-04, r^2= 1.9D+00
   Bfn.  Coefficient  Atom+Function         Bfn.  Coefficient  Atom+Function  
  ----- ------------  ---------------      ----- ------------  ---------------
    21      1.396184   2 C  s                97      1.396179   6 C  s         
    59      1.344659   4 C  s                20     -1.146386   2 C  s         
    96     -1.146382   6 C  s                58     -1.103530   4 C  s         
     2      0.959611   1 C  s                10     -0.813319   1 C  s         
     1     -0.789155   1 C  s                48     -0.644864   3 N  s         

 Vector  124  Occ=0.000000D+00  E= 2.668027D+01
              MO Center= -1.3D-04, -8.6D-01,  5.9D-04, r^2= 1.2D+00
   Bfn.  Coefficient  Atom+Function         Bfn.  Coefficient  Atom+Function  
  ----- ------------  ---------------      ----- ------------  ---------------
     2      1.964822   1 C  s                 1     -1.605382   1 C  s         
    10     -1.608719   1 C  s                21     -1.058008   2 C  s         
    97     -1.058001   6 C  s                29      0.960751   2 C  s         
   105      0.960749   6 C  s                20      0.863561   2 C  s         
    96      0.863555   6 C  s                59      0.789958   4 C  s         

 Vector  125  Occ=0.000000D+00  E= 3.965263D+01
              MO Center=  2.0D-04,  7.1D-01, -4.4D-04, r^2= 1.5D+00
   Bfn.  Coefficient  Atom+Function         Bfn.  Coefficient  Atom+Function  
  ----- ------------  ---------------      ----- ------------  ---------------
    40      1.873790   3 N  s                78      1.873913   5 N  s         
    39     -1.573654   3 N  s                77     -1.573757   5 N  s         
    48     -0.857347   3 N  s                86     -0.857390   5 N  s         
    44     -0.709800   3 N  s                82     -0.709847   5 N  s         
    29      0.538260   2 C  s               105      0.538269   6 C  s         

 Vector  126  Occ=0.000000D+00  E= 3.967286D+01
              MO Center=  4.5D-05,  7.1D-01, -4.4D-04, r^2= 1.5D+00
   Bfn.  Coefficient  Atom+Function         Bfn.  Coefficient  Atom+Function  
  ----- ------------  ---------------      ----- ------------  ---------------
    40      1.876084   3 N  s                78     -1.875961   5 N  s         
    39     -1.574477   3 N  s                77      1.574374   5 N  s         
    44     -0.719468   3 N  s                82      0.719421   5 N  s         
    48     -0.676813   3 N  s                86      0.676755   5 N  s         
    55      0.496214   3 N  dyy              93     -0.496196   5 N  dyy       


 center of mass
 --------------
 x =   0.00002260 y =   0.05128911 z =   0.00004894

 moments of inertia (a.u.)
 ------------------
         284.699032686313           0.001159547986          -0.001201903421
           0.001159547986         294.725084120207           0.128114029415
          -0.001201903421           0.128114029415         579.423927952033

     Multipole analysis of the density
     ---------------------------------

     L   x y z        total         alpha         beta         nuclear
     -   - - -        -----         -----         ----         -------
     0   0 0 0     -0.000000    -21.000000    -21.000000     42.000000

     1   1 0 0     -0.000147     -0.000364     -0.000364      0.000581
     1   0 1 0     -0.910904     -0.414977     -0.414977     -0.080949
     1   0 0 1      0.000893     -0.001672     -0.001672      0.004238

     2   2 0 0    -27.182099    -95.447955    -95.447955    163.713812
     2   1 1 0      0.000749     -0.000066     -0.000066      0.000881
     2   1 0 1      0.000330     -0.000490     -0.000490      0.001311
     2   0 2 0    -22.524726    -94.979828    -94.979828    167.434929
     2   0 1 1     -0.001558      0.036688      0.036688     -0.074933
     2   0 0 2    -26.603189    -13.301625    -13.301625      0.000062


 Parallel integral file used     507 records with       0 large values


            General Information
            -------------------
          SCF calculation type: DFT
          Wavefunction type:  closed shell.
          No. of atoms     :    10
          No. of electrons :    42
           Alpha electrons :    21
            Beta electrons :    21
          Charge           :     0
          Spin multiplicity:     1
          Use of symmetry is: off; symmetry adaption is: off
          Maximum number of iterations: 100
          AO basis - number of functions:   126
                     number of shells:    60
          Convergence on energy requested:  1.00D-07
          Convergence on density requested:  1.00D-05
          Convergence on gradient requested:  5.00D-04

              XC Information
              --------------
                         PBE0 Method XC Functional
                     Hartree-Fock (Exact) Exchange  0.250          
          PerdewBurkeErnzerhof Exchange Functional  0.750          
            Perdew 1991 LDA Correlation Functional  1.000 local    
           PerdewBurkeErnz. Correlation Functional  1.000 non-local

             Grid Information
             ----------------
          Grid used for XC integration:  fine      
          Radial quadrature: Mura-Knowles        
          Angular quadrature: Lebedev. 
          Tag              B.-S. Rad. Rad. Pts. Rad. Cut. Ang. Pts.
          ---              ---------- --------- --------- ---------
          C                   0.70       70          11.0       590
          N                   0.65       70          11.0       590
          H                   0.35       60          13.0       590
          Grid pruning is: on 
          Number of quadrature shells:   660
          Spatial weights used:  Erf1

          Convergence Information
          -----------------------
          Convergence aids based upon iterative change in 
          total energy or number of iterations. 
          Levelshifting, if invoked, occurs when the 
          HOMO/LUMO gap drops below (HL_TOL):  1.00D-02
          DIIS, if invoked, will attempt to extrapolate 
          using up to (NFOCK): 10 stored Fock matrices.

                    Damping( 0%)  Levelshifting(0.5)       DIIS
                  --------------- ------------------- ---------------
          dE  on:    start            ASAP                start   
          dE off:    2 iters        100 iters           100 iters 


      Screening Tolerance Information
      -------------------------------
          Density screening/tol_rho:  1.00D-10
          AO Gaussian exp screening on grid/accAOfunc:  16
          CD Gaussian exp screening on grid/accCDfunc:  20
          XC Gaussian exp screening on grid/accXCfunc:  20
          Schwarz screening/accCoul:  1.00D-08



                            NWChem DFT Gradient Module
                            --------------------------


             pyrimidine geometry optimization, PBE0/6-311G* Cartesian



  charge          =   0.00
  wavefunction    = closed shell



                         DFT ENERGY GRADIENTS

    atom               coordinates                        gradient
                 x          y          z           x          y          z
   1 C      -0.000399  -2.552662   0.001915   -0.000001  -0.000106  -0.000020
   2 C      -2.228231  -1.169706   0.000114    0.000062   0.000306  -0.000020
   3 N      -2.254144   1.344843  -0.000778   -0.000412  -0.000553   0.000008
   4 C       0.000411   2.457553  -0.000381    0.000001   0.000701   0.000018
   5 N       2.254608   1.344122  -0.000872    0.000412  -0.000551  -0.000001
   6 C       2.227882  -1.170422   0.000218   -0.000059   0.000305  -0.000018
   7 H      -0.000740  -4.601115   0.005326   -0.000001   0.000236   0.000054
   8 H      -4.061853  -2.101080  -0.000607   -0.000028  -0.000041  -0.000017
   9 H       0.000742   4.512294   0.000124    0.000000  -0.000256   0.000008
  10 H       4.061201  -2.102378  -0.000254    0.000027  -0.000039  -0.000013

                 ----------------------------------------
                 |  Time  |  1-e(secs)   |  2-e(secs)   |
                 ----------------------------------------
                 |  CPU   |       0.01   |       3.37   |
                 ----------------------------------------
                 |  WALL  |       0.01   |       3.37   |
                 ----------------------------------------

  Step       Energy      Delta E   Gmax     Grms     Xrms     Xmax   Walltime
  ---- ---------------- -------- -------- -------- -------- -------- --------
@    3    -264.07133165 -2.2D-05  0.00070  0.00024  0.00301  0.00803     82.7
                                              ok                    


                                 NWChem DFT Module
                                 -----------------


             pyrimidine geometry optimization, PBE0/6-311G* Cartesian




 Summary of "ao basis" -> "ao basis" (cartesian)
 ------------------------------------------------------------------------------
       Tag                 Description            Shells   Functions and Types
 ---------------- ------------------------------  ------  ---------------------
 C                          6-311G*                  8       19   4s3p1d
 N                          6-311G*                  8       19   4s3p1d
 H                          6-311G*                  3        3   3s


  Caching 1-el integrals 

            General Information
            -------------------
          SCF calculation type: DFT
          Wavefunction type:  closed shell.
          No. of atoms     :    10
          No. of electrons :    42
           Alpha electrons :    21
            Beta electrons :    21
          Charge           :     0
          Spin multiplicity:     1
          Use of symmetry is: off; symmetry adaption is: off
          Maximum number of iterations: 100
          AO basis - number of functions:   126
                     number of shells:    60
          Convergence on energy requested:  1.00D-07
          Convergence on density requested:  1.00D-05
          Convergence on gradient requested:  5.00D-04

              XC Information
              --------------
                         PBE0 Method XC Functional
                     Hartree-Fock (Exact) Exchange  0.250          
          PerdewBurkeErnzerhof Exchange Functional  0.750          
            Perdew 1991 LDA Correlation Functional  1.000 local    
           PerdewBurkeErnz. Correlation Functional  1.000 non-local

             Grid Information
             ----------------
          Grid used for XC integration:  fine      
          Radial quadrature: Mura-Knowles        
          Angular quadrature: Lebedev. 
          Tag              B.-S. Rad. Rad. Pts. Rad. Cut. Ang. Pts.
          ---              ---------- --------- --------- ---------
          C                   0.70       70          11.0       590
          N                   0.65       70          11.0       590
          H                   0.35       60          13.0       590
          Grid pruning is: on 
          Number of quadrature shells:   660
          Spatial weights used:  Erf1

          Convergence Information
          -----------------------
          Convergence aids based upon iterative change in 
          total energy or number of iterations. 
          Levelshifting, if invoked, occurs when the 
          HOMO/LUMO gap drops below (HL_TOL):  1.00D-02
          DIIS, if invoked, will attempt to extrapolate 
          using up to (NFOCK): 10 stored Fock matrices.

                    Damping( 0%)  Levelshifting(0.5)       DIIS
                  --------------- ------------------- ---------------
          dE  on:    start            ASAP                start   
          dE off:    2 iters        100 iters           100 iters 


      Screening Tolerance Information
      -------------------------------
          Density screening/tol_rho:  1.00D-10
          AO Gaussian exp screening on grid/accAOfunc:  16
          CD Gaussian exp screening on grid/accCDfunc:  20
          XC Gaussian exp screening on grid/accXCfunc:  20
          Schwarz screening/accCoul:  1.00D-08


 Loading old vectors from job with title :

pyrimidine geometry optimization, PBE0/6-311G* Cartesian

   Time after variat. SCF:     82.7
   Time prior to 1st pass:     82.7

 Integral file          = /Users/bldrdge1/Downloads/repos/PlasMol/jobs/final/Step_1/pyrimidine/pyrimidine_opt.aoints.0
 Record size in doubles =  65536        No. of integs per rec  =  43688
 Max. records in memory =    995        Max. records in file   = 160266
 No. of bits per label  =      8        No. of bits per value  =     64


 #quartets = 1.346D+06 #integrals = 2.222D+07 #direct =  0.0% #cached =100.0%

  avail0,avail1,avail0-avail1                 84335                84335                    0
  avail0,avail1,avail0-avail1                 84335                84335                    0
  avail0,avail1,avail0-avail1                 84335                84351                  -16
  avail0,avail1,avail0-avail1                 84335                84351                  -16

 Grid_pts file          = /Users/bldrdge1/Downloads/repos/PlasMol/jobs/final/Step_1/pyrimidine/pyrimidine_opt.gridpts.0
 Record size in doubles =  12289        No. of grid_pts per rec  =   3070
 Max. records in memory =    141        Max. recs in file   =    854525


           Memory utilization after 1st SCF pass: 
           Heap Space remaining (MW):       14.94            14938436
          Stack Space remaining (MW):       81.92            81919076

   convergence    iter        energy       DeltaE   RMS-Dens  Diis-err    time
 ---------------- ----- ----------------- --------- --------- ---------  ------
 d= 0,ls=0.0,diis     1   -264.0713321656 -4.74D+02  1.14D-05  2.85D-06    85.5
 d= 0,ls=0.0,diis     2   -264.0713325386 -3.73D-07  4.56D-06  1.74D-07    87.1
 d= 0,ls=0.0,diis     3   -264.0713325152  2.34D-08  2.81D-06  3.38D-07    88.6


         Total DFT energy =     -264.071332515197
      One electron energy =     -771.095458712470
           Coulomb energy =      334.089804286192
    Exchange-Corr. energy =      -36.710731965740
 Nuclear repulsion energy =      209.645053876821

 Numeric. integr. density =       42.000002130899

     Total iterative time =      5.9s



                       DFT Final Molecular Orbital Analysis
                       ------------------------------------

 Vector    1  Occ=2.000000D+00  E=-1.439364D+01
              MO Center=  2.6D-03,  7.1D-01, -4.5D-04, r^2= 1.4D+00
   Bfn.  Coefficient  Atom+Function         Bfn.  Coefficient  Atom+Function  
  ----- ------------  ---------------      ----- ------------  ---------------
    39      0.394302   3 N  s                77     -0.395117   5 N  s         
    40      0.326835   3 N  s                78     -0.327510   5 N  s         

 Vector    2  Occ=2.000000D+00  E=-1.439363D+01
              MO Center= -2.3D-03,  7.1D-01, -4.5D-04, r^2= 1.4D+00
   Bfn.  Coefficient  Atom+Function         Bfn.  Coefficient  Atom+Function  
  ----- ------------  ---------------      ----- ------------  ---------------
    39      0.395113   3 N  s                77      0.394298   5 N  s         
    40      0.327532   3 N  s                78      0.326857   5 N  s         

 Vector    3  Occ=2.000000D+00  E=-1.029662D+01
              MO Center=  2.2D-04,  1.3D+00, -2.6D-04, r^2= 2.8D-02
   Bfn.  Coefficient  Atom+Function         Bfn.  Coefficient  Atom+Function  
  ----- ------------  ---------------      ----- ------------  ---------------
    58      0.563889   4 C  s                59      0.460081   4 C  s         

 Vector    4  Occ=2.000000D+00  E=-1.028588D+01
              MO Center=  3.1D-02, -6.2D-01,  1.5D-04, r^2= 1.4D+00
   Bfn.  Coefficient  Atom+Function         Bfn.  Coefficient  Atom+Function  
  ----- ------------  ---------------      ----- ------------  ---------------
    96      0.403923   6 C  s                20      0.393377   2 C  s         
    97      0.329533   6 C  s                21      0.320928   2 C  s         

 Vector    5  Occ=2.000000D+00  E=-1.028587D+01
              MO Center= -3.1D-02, -6.2D-01,  1.4D-04, r^2= 1.4D+00
   Bfn.  Coefficient  Atom+Function         Bfn.  Coefficient  Atom+Function  
  ----- ------------  ---------------      ----- ------------  ---------------
    20      0.403951   2 C  s                96     -0.393406   6 C  s         
    21      0.329611   2 C  s                97     -0.321008   6 C  s         

 Vector    6  Occ=2.000000D+00  E=-1.025333D+01
              MO Center= -2.1D-04, -1.4D+00,  1.1D-03, r^2= 2.8D-02
   Bfn.  Coefficient  Atom+Function         Bfn.  Coefficient  Atom+Function  
  ----- ------------  ---------------      ----- ------------  ---------------
     1      0.563777   1 C  s                 2      0.459919   1 C  s         

 Vector    7  Occ=2.000000D+00  E=-1.026971D+00
              MO Center=  7.8D-05,  4.3D-01, -2.0D-04, r^2= 1.6D+00
   Bfn.  Coefficient  Atom+Function         Bfn.  Coefficient  Atom+Function  
  ----- ------------  ---------------      ----- ------------  ---------------
    44      0.264961   3 N  s                82      0.264961   5 N  s         
    63      0.240996   4 C  s                48      0.199385   3 N  s         
    86      0.199386   5 N  s                25      0.157698   2 C  s         
   101      0.157698   6 C  s                40     -0.099149   3 N  s         
    78     -0.099150   5 N  s                 6      0.093519   1 C  s         

 Vector    8  Occ=2.000000D+00  E=-9.264924D-01
              MO Center=  6.5D-05,  3.7D-01, -2.2D-04, r^2= 1.9D+00
   Bfn.  Coefficient  Atom+Function         Bfn.  Coefficient  Atom+Function  
  ----- ------------  ---------------      ----- ------------  ---------------
    44      0.319932   3 N  s                82     -0.319931   5 N  s         
    48      0.217235   3 N  s                86     -0.217235   5 N  s         
    25      0.190700   2 C  s               101     -0.190699   6 C  s         
    40     -0.116679   3 N  s                64     -0.116366   4 C  px        
    78      0.116679   5 N  s                60     -0.078300   4 C  px        

 Vector    9  Occ=2.000000D+00  E=-8.272655D-01
              MO Center= -7.5D-05, -5.0D-01,  4.1D-04, r^2= 2.2D+00
   Bfn.  Coefficient  Atom+Function         Bfn.  Coefficient  Atom+Function  
  ----- ------------  ---------------      ----- ------------  ---------------
     6      0.339189   1 C  s                63     -0.232211   4 C  s         
    25      0.209875   2 C  s               101      0.209875   6 C  s         
    10      0.144398   1 C  s                 2     -0.128466   1 C  s         
    67     -0.110235   4 C  s                29      0.106665   2 C  s         
   105      0.106665   6 C  s                44     -0.099380   3 N  s         

 Vector   10  Occ=2.000000D+00  E=-6.859989D-01
              MO Center=  2.3D-04, -2.4D-01,  6.3D-05, r^2= 3.0D+00
   Bfn.  Coefficient  Atom+Function         Bfn.  Coefficient  Atom+Function  
  ----- ------------  ---------------      ----- ------------  ---------------
    25      0.273309   2 C  s               101     -0.273378   6 C  s         
    29      0.171423   2 C  s               105     -0.171484   6 C  s         
    64      0.157149   4 C  px               44     -0.141994   3 N  s         
    82      0.141926   5 N  s                 7     -0.134940   1 C  px        
    48     -0.117714   3 N  s                86      0.117662   5 N  s         

 Vector   11  Occ=2.000000D+00  E=-6.853197D-01
              MO Center= -2.4D-04,  9.5D-02,  1.4D-04, r^2= 3.0D+00
   Bfn.  Coefficient  Atom+Function         Bfn.  Coefficient  Atom+Function  
  ----- ------------  ---------------      ----- ------------  ---------------
    63      0.281381   4 C  s                 6      0.246631   1 C  s         
    10      0.200068   1 C  s                67      0.177251   4 C  s         
    46      0.125328   3 N  py               84      0.125289   5 N  py        
    27     -0.109512   2 C  py              103     -0.109523   6 C  py        
    25     -0.102329   2 C  s               101     -0.102146   6 C  s         

 Vector   12  Occ=2.000000D+00  E=-5.629870D-01
              MO Center= -1.4D-05, -1.4D-01,  7.0D-05, r^2= 3.9D+00
   Bfn.  Coefficient  Atom+Function         Bfn.  Coefficient  Atom+Function  
  ----- ------------  ---------------      ----- ------------  ---------------
    26      0.167559   2 C  px              102     -0.167541   6 C  px        
    65     -0.160429   4 C  py                8      0.120599   1 C  py        
    29     -0.116757   2 C  s               105     -0.116757   6 C  s         
    22      0.103360   2 C  px               98     -0.103350   6 C  px        
    67     -0.102184   4 C  s               119     -0.102039   8 H  s         

 Vector   13  Occ=2.000000D+00  E=-5.390863D-01
              MO Center= -7.3D-06, -1.1D-01,  8.8D-05, r^2= 2.5D+00
   Bfn.  Coefficient  Atom+Function         Bfn.  Coefficient  Atom+Function  
  ----- ------------  ---------------      ----- ------------  ---------------
     7      0.184927   1 C  px               27      0.178459   2 C  py        
   103     -0.178441   6 C  py               64      0.173618   4 C  px        
    46     -0.165687   3 N  py               84      0.165720   5 N  py        
     3      0.122478   1 C  px               23      0.121855   2 C  py        
    60      0.121609   4 C  px               99     -0.121842   6 C  py        

 Vector   14  Occ=2.000000D+00  E=-4.908286D-01
              MO Center= -1.5D-04, -9.4D-01,  1.2D-03, r^2= 3.5D+00
   Bfn.  Coefficient  Atom+Function         Bfn.  Coefficient  Atom+Function  
  ----- ------------  ---------------      ----- ------------  ---------------
     8      0.265570   1 C  py              116     -0.195996   7 H  s         
     4      0.167869   1 C  py               12      0.165769   1 C  py        
   115     -0.161626   7 H  s                65      0.138405   4 C  py        
    25      0.126428   2 C  s               101      0.126427   6 C  s         
    44     -0.120759   3 N  s                82     -0.120759   5 N  s         

 Vector   15  Occ=2.000000D+00  E=-4.507690D-01
              MO Center=  4.8D-05,  2.6D-01, -1.7D-05, r^2= 2.4D+00
   Bfn.  Coefficient  Atom+Function         Bfn.  Coefficient  Atom+Function  
  ----- ------------  ---------------      ----- ------------  ---------------
    47      0.186322   3 N  pz               85      0.186322   5 N  pz        
    66      0.184192   4 C  pz               28      0.147443   2 C  pz        
   104      0.147443   6 C  pz               51      0.131033   3 N  pz        
    89      0.131033   5 N  pz               70      0.126028   4 C  pz        
     9      0.121713   1 C  pz               43      0.117376   3 N  pz        

 Vector   16  Occ=2.000000D+00  E=-4.401109D-01
              MO Center= -8.1D-05, -5.8D-01,  2.8D-05, r^2= 3.4D+00
   Bfn.  Coefficient  Atom+Function         Bfn.  Coefficient  Atom+Function  
  ----- ------------  ---------------      ----- ------------  ---------------
    26      0.223869   2 C  px              102      0.223850   6 C  px        
     7     -0.161353   1 C  px               22      0.144340   2 C  px        
    98      0.144329   6 C  px              119     -0.142851   8 H  s         
   125      0.142852  10 H  s                30      0.139008   2 C  px        
   106      0.138995   6 C  px              118     -0.112190   8 H  s         

 Vector   17  Occ=2.000000D+00  E=-4.302926D-01
              MO Center=  5.9D-05,  3.5D-01, -2.2D-04, r^2= 3.8D+00
   Bfn.  Coefficient  Atom+Function         Bfn.  Coefficient  Atom+Function  
  ----- ------------  ---------------      ----- ------------  ---------------
    65      0.244435   4 C  py               61      0.153016   4 C  py        
    69      0.152800   4 C  py               10      0.141388   1 C  s         
   122      0.137691   9 H  s                45     -0.134847   3 N  px        
    83      0.134827   5 N  px              119     -0.121465   8 H  s         
   125     -0.121464  10 H  s                27      0.115246   2 C  py        

 Vector   18  Occ=2.000000D+00  E=-3.379215D-01
              MO Center=  3.7D-05,  1.9D-01, -1.7D-04, r^2= 2.6D+00
   Bfn.  Coefficient  Atom+Function         Bfn.  Coefficient  Atom+Function  
  ----- ------------  ---------------      ----- ------------  ---------------
    47      0.235269   3 N  pz               85     -0.235270   5 N  pz        
    51      0.210661   3 N  pz               89     -0.210662   5 N  pz        
    28      0.191073   2 C  pz              104     -0.191072   6 C  pz        
    32      0.165573   2 C  pz              108     -0.165572   6 C  pz        
    43      0.151195   3 N  pz               81     -0.151195   5 N  pz        

 Vector   19  Occ=2.000000D+00  E=-3.209890D-01
              MO Center=  1.2D-04,  7.0D-01, -1.7D-04, r^2= 3.2D+00
   Bfn.  Coefficient  Atom+Function         Bfn.  Coefficient  Atom+Function  
  ----- ------------  ---------------      ----- ------------  ---------------
    48      0.235723   3 N  s                86      0.235724   5 N  s         
    50      0.184525   3 N  py               88      0.184479   5 N  py        
    46      0.180184   3 N  py               84      0.180141   5 N  py        
    44      0.179195   3 N  s                82      0.179195   5 N  s         
   122     -0.145566   9 H  s                49     -0.140937   3 N  px        

 Vector   20  Occ=2.000000D+00  E=-3.063486D-01
              MO Center= -4.2D-05, -3.1D-01,  3.6D-04, r^2= 2.7D+00
   Bfn.  Coefficient  Atom+Function         Bfn.  Coefficient  Atom+Function  
  ----- ------------  ---------------      ----- ------------  ---------------
     9      0.266946   1 C  pz               13      0.253508   1 C  pz        
    66     -0.218336   4 C  pz               70     -0.195596   4 C  pz        
     5      0.164524   1 C  pz               28      0.146408   2 C  pz        
   104      0.146409   6 C  pz               62     -0.133655   4 C  pz        
    32      0.113385   2 C  pz              108      0.113386   6 C  pz        

 Vector   21  Occ=2.000000D+00  E=-2.711688D-01
              MO Center=  8.8D-05,  5.2D-01, -4.8D-04, r^2= 3.2D+00
   Bfn.  Coefficient  Atom+Function         Bfn.  Coefficient  Atom+Function  
  ----- ------------  ---------------      ----- ------------  ---------------
    49      0.267249   3 N  px               87      0.267281   5 N  px        
    45      0.248207   3 N  px               83      0.248237   5 N  px        
    11      0.202272   1 C  px               41      0.171407   3 N  px        
    79      0.171427   5 N  px               64     -0.135668   4 C  px        
     7      0.117138   1 C  px               44     -0.117239   3 N  s         

 Vector   22  Occ=0.000000D+00  E=-4.262894D-02
              MO Center= -1.5D-05, -1.6D-01,  3.2D-06, r^2= 3.1D+00
   Bfn.  Coefficient  Atom+Function         Bfn.  Coefficient  Atom+Function  
  ----- ------------  ---------------      ----- ------------  ---------------
    32      0.422855   2 C  pz              108     -0.422860   6 C  pz        
    51     -0.352060   3 N  pz               89      0.352057   5 N  pz        
    28      0.250278   2 C  pz              104     -0.250281   6 C  pz        
    47     -0.200322   3 N  pz               85      0.200320   5 N  pz        
    24      0.157143   2 C  pz              100     -0.157145   6 C  pz        

 Vector   23  Occ=0.000000D+00  E=-3.036517D-02
              MO Center=  1.9D-05,  9.0D-02,  1.6D-04, r^2= 3.2D+00
   Bfn.  Coefficient  Atom+Function         Bfn.  Coefficient  Atom+Function  
  ----- ------------  ---------------      ----- ------------  ---------------
    13      0.516408   1 C  pz               70      0.465461   4 C  pz        
    66      0.295846   4 C  pz               32     -0.286787   2 C  pz        
   108     -0.286780   6 C  pz                9      0.235109   1 C  pz        
    51     -0.197978   3 N  pz               89     -0.197985   5 N  pz        
    62      0.180765   4 C  pz                5      0.157394   1 C  pz        

 Vector   24  Occ=0.000000D+00  E= 5.647578D-02
              MO Center= -3.3D-04, -2.0D+00,  1.4D-03, r^2= 6.8D+00
   Bfn.  Coefficient  Atom+Function         Bfn.  Coefficient  Atom+Function  
  ----- ------------  ---------------      ----- ------------  ---------------
   117      1.272360   7 H  s                10     -0.900422   1 C  s         
   120      0.877535   8 H  s               126      0.877526  10 H  s         
    29     -0.645227   2 C  s               105     -0.645219   6 C  s         
    12      0.540524   1 C  py               30      0.303510   2 C  px        
   106     -0.303463   6 C  px              123      0.278195   9 H  s         

 Vector   25  Occ=0.000000D+00  E= 9.452711D-02
              MO Center= -1.8D-04, -1.4D+00, -3.4D-04, r^2= 9.4D+00
   Bfn.  Coefficient  Atom+Function         Bfn.  Coefficient  Atom+Function  
  ----- ------------  ---------------      ----- ------------  ---------------
   120      1.540492   8 H  s               126     -1.540514  10 H  s         
    29     -1.161737   2 C  s               105      1.161740   6 C  s         
    30      0.678456   2 C  px              106      0.678363   6 C  px        
    31      0.331082   2 C  py              107     -0.331306   6 C  py        
    11     -0.314594   1 C  px               25     -0.126732   2 C  s         

 Vector   26  Occ=0.000000D+00  E= 1.024474D-01
              MO Center=  3.5D-04,  2.1D+00,  7.0D-04, r^2= 6.6D+00
   Bfn.  Coefficient  Atom+Function         Bfn.  Coefficient  Atom+Function  
  ----- ------------  ---------------      ----- ------------  ---------------
   123      1.990131   9 H  s                67     -1.107728   4 C  s         
    69     -1.012239   4 C  py              117     -0.856261   7 H  s         
    12     -0.548932   1 C  py               10      0.355769   1 C  s         
    48     -0.263286   3 N  s                86     -0.263287   5 N  s         
   120      0.182907   8 H  s               126      0.182881  10 H  s         

 Vector   27  Occ=0.000000D+00  E= 1.205089D-01
              MO Center= -2.4D-04, -1.4D+00,  1.2D-03, r^2= 9.6D+00
   Bfn.  Coefficient  Atom+Function         Bfn.  Coefficient  Atom+Function  
  ----- ------------  ---------------      ----- ------------  ---------------
   117      1.709992   7 H  s               120     -1.232052   8 H  s         
   126     -1.232037  10 H  s                12      1.192809   1 C  py        
   123      0.767517   9 H  s                10     -0.670129   1 C  s         
    30     -0.662480   2 C  px              106      0.662276   6 C  px        
    31     -0.621077   2 C  py              107     -0.621284   6 C  py        

 Vector   28  Occ=0.000000D+00  E= 1.328803D-01
              MO Center=  2.2D-06, -2.5D-02, -7.9D-05, r^2= 3.5D+00
   Bfn.  Coefficient  Atom+Function         Bfn.  Coefficient  Atom+Function  
  ----- ------------  ---------------      ----- ------------  ---------------
    13      0.631277   1 C  pz               32     -0.562734   2 C  pz        
   108     -0.562733   6 C  pz               70     -0.506876   4 C  pz        
    51      0.485023   3 N  pz               89      0.485022   5 N  pz        
    47      0.215495   3 N  pz               85      0.215495   5 N  pz        
     9      0.207695   1 C  pz               66     -0.195256   4 C  pz        

 Vector   29  Occ=0.000000D+00  E= 2.111301D-01
              MO Center=  2.2D-05, -7.2D-02,  2.0D-04, r^2= 4.9D+00
   Bfn.  Coefficient  Atom+Function         Bfn.  Coefficient  Atom+Function  
  ----- ------------  ---------------      ----- ------------  ---------------
    48      2.252346   3 N  s                86      2.252427   5 N  s         
    67     -1.907902   4 C  s                10     -1.304432   1 C  s         
    31     -1.122999   2 C  py              107     -1.122847   6 C  py        
    69      1.037085   4 C  py               29     -0.902388   2 C  s         
   105     -0.902477   6 C  s                30      0.559935   2 C  px        

 Vector   30  Occ=0.000000D+00  E= 2.140923D-01
              MO Center= -4.8D-05, -1.8D-01,  3.0D-04, r^2= 5.1D+00
   Bfn.  Coefficient  Atom+Function         Bfn.  Coefficient  Atom+Function  
  ----- ------------  ---------------      ----- ------------  ---------------
    48     -1.990015   3 N  s                86      1.989913   5 N  s         
    29      1.828856   2 C  s               105     -1.828803   6 C  s         
    11      1.105470   1 C  px               68     -1.090211   4 C  px        
    31      0.759764   2 C  py              107     -0.759929   6 C  py        
    30      0.663524   2 C  px              106      0.663296   6 C  px        

 Vector   31  Occ=0.000000D+00  E= 2.773005D-01
              MO Center= -1.4D-04, -9.9D-01, -5.3D-05, r^2= 4.4D+00
   Bfn.  Coefficient  Atom+Function         Bfn.  Coefficient  Atom+Function  
  ----- ------------  ---------------      ----- ------------  ---------------
    10      2.918343   1 C  s                29     -1.968571   2 C  s         
   105     -1.968587   6 C  s                67     -1.880473   4 C  s         
    12      1.866406   1 C  py               30     -1.262446   2 C  px        
   106      1.262571   6 C  px               48      0.986829   3 N  s         
    86      0.986877   5 N  s               116      0.824445   7 H  s         

 Vector   32  Occ=0.000000D+00  E= 3.043737D-01
              MO Center=  4.8D-05,  2.8D-01,  5.6D-04, r^2= 5.7D+00
   Bfn.  Coefficient  Atom+Function         Bfn.  Coefficient  Atom+Function  
  ----- ------------  ---------------      ----- ------------  ---------------
    68      2.469630   4 C  px               11      1.677834   1 C  px        
    29      1.561071   2 C  s               105     -1.561165   6 C  s         
    48      1.445640   3 N  s                86     -1.445615   5 N  s         
    50      0.724900   3 N  py               88     -0.725064   5 N  py        
    49      0.490216   3 N  px               87      0.489967   5 N  px        

 Vector   33  Occ=0.000000D+00  E= 3.284606D-01
              MO Center= -3.9D-05, -3.0D-01,  3.9D-04, r^2= 4.4D+00
   Bfn.  Coefficient  Atom+Function         Bfn.  Coefficient  Atom+Function  
  ----- ------------  ---------------      ----- ------------  ---------------
    10      4.634834   1 C  s                29     -3.709963   2 C  s         
   105     -3.709945   6 C  s                12      2.810228   1 C  py        
    30     -1.977702   2 C  px              106      1.977553   6 C  px        
   117      1.352571   7 H  s                48      0.989586   3 N  s         
    86      0.989589   5 N  s                50     -0.782900   3 N  py        

 Vector   34  Occ=0.000000D+00  E= 3.442566D-01
              MO Center= -3.1D-06, -3.6D-02, -2.7D-04, r^2= 6.4D+00
   Bfn.  Coefficient  Atom+Function         Bfn.  Coefficient  Atom+Function  
  ----- ------------  ---------------      ----- ------------  ---------------
    11      2.699907   1 C  px               31     -2.379484   2 C  py        
   107      2.379029   6 C  py               68     -1.920416   4 C  px        
    30      1.448746   2 C  px              106      1.449499   6 C  px        
    50     -1.005602   3 N  py               88      1.005806   5 N  py        
    49     -0.598065   3 N  px               87     -0.597741   5 N  px        

 Vector   35  Occ=0.000000D+00  E= 3.547800D-01
              MO Center= -2.2D-05, -1.5D-01, -2.0D-04, r^2= 4.7D+00
   Bfn.  Coefficient  Atom+Function         Bfn.  Coefficient  Atom+Function  
  ----- ------------  ---------------      ----- ------------  ---------------
    10      3.375110   1 C  s                67     -3.257670   4 C  s         
    31      1.111348   2 C  py              107      1.110995   6 C  py        
    30     -1.098703   2 C  px              106      1.099060   6 C  px        
    12      0.854775   1 C  py               49      0.837643   3 N  px        
    87     -0.837389   5 N  px               50      0.783691   3 N  py        

 Vector   36  Occ=0.000000D+00  E= 3.848414D-01
              MO Center= -5.4D-05, -3.8D-01,  7.8D-04, r^2= 3.9D+00
   Bfn.  Coefficient  Atom+Function         Bfn.  Coefficient  Atom+Function  
  ----- ------------  ---------------      ----- ------------  ---------------
    70      0.523183   4 C  pz               32      0.518540   2 C  pz        
   108      0.518540   6 C  pz               28     -0.450139   2 C  pz        
   104     -0.450139   6 C  pz                9     -0.412544   1 C  pz        
    66     -0.407353   4 C  pz               13      0.348868   1 C  pz        
    24     -0.118773   2 C  pz              100     -0.118773   6 C  pz        

 Vector   37  Occ=0.000000D+00  E= 4.011010D-01
              MO Center= -1.3D-04, -8.6D-01,  8.7D-04, r^2= 4.1D+00
   Bfn.  Coefficient  Atom+Function         Bfn.  Coefficient  Atom+Function  
  ----- ------------  ---------------      ----- ------------  ---------------
    29      2.550947   2 C  s               105     -2.550923   6 C  s         
    11      1.216608   1 C  px               30      1.010122   2 C  px        
   106      1.010316   6 C  px               68      0.769897   4 C  px        
   119     -0.726379   8 H  s               125      0.726388  10 H  s         
    31     -0.710501   2 C  py              107      0.710155   6 C  py        

 Vector   38  Occ=0.000000D+00  E= 4.186944D-01
              MO Center=  2.1D-04,  1.2D+00,  4.2D-04, r^2= 4.2D+00
   Bfn.  Coefficient  Atom+Function         Bfn.  Coefficient  Atom+Function  
  ----- ------------  ---------------      ----- ------------  ---------------
    29     -1.451161   2 C  s               105     -1.451134   6 C  s         
   122     -1.449758   9 H  s                10      1.432016   1 C  s         
    12      0.760796   1 C  py              123      0.738615   9 H  s         
    30     -0.613594   2 C  px              106      0.613517   6 C  px        
    69      0.552597   4 C  py              117      0.441822   7 H  s         

 Vector   39  Occ=0.000000D+00  E= 4.372036D-01
              MO Center= -1.3D-04, -8.8D-01, -2.1D-04, r^2= 4.5D+00
   Bfn.  Coefficient  Atom+Function         Bfn.  Coefficient  Atom+Function  
  ----- ------------  ---------------      ----- ------------  ---------------
    10      1.188545   1 C  s                67      0.851808   4 C  s         
   119      0.729967   8 H  s               125      0.729962  10 H  s         
   116     -0.656831   7 H  s               120     -0.588456   8 H  s         
   126     -0.588448  10 H  s                25     -0.423362   2 C  s         
   101     -0.423362   6 C  s                63     -0.396620   4 C  s         

 Vector   40  Occ=0.000000D+00  E= 4.468130D-01
              MO Center=  9.3D-05,  5.5D-01,  2.5D-04, r^2= 4.4D+00
   Bfn.  Coefficient  Atom+Function         Bfn.  Coefficient  Atom+Function  
  ----- ------------  ---------------      ----- ------------  ---------------
    70      1.190541   4 C  pz               66     -0.726297   4 C  pz        
    13     -0.699155   1 C  pz                9      0.461567   1 C  pz        
    62     -0.179307   4 C  pz               28      0.121249   2 C  pz        
   104      0.121244   6 C  pz                5      0.109345   1 C  pz        
    51     -0.100533   3 N  pz               89     -0.100534   5 N  pz        

 Vector   41  Occ=0.000000D+00  E= 4.562419D-01
              MO Center= -1.0D-04, -7.0D-01, -2.4D-04, r^2= 4.4D+00
   Bfn.  Coefficient  Atom+Function         Bfn.  Coefficient  Atom+Function  
  ----- ------------  ---------------      ----- ------------  ---------------
    32      1.029338   2 C  pz              108     -1.029340   6 C  pz        
    28     -0.626101   2 C  pz              104      0.626103   6 C  pz        
    24     -0.153604   2 C  pz              100      0.153604   6 C  pz        
    16      0.079348   1 C  dxz              51     -0.078314   3 N  pz        
    89      0.078313   5 N  pz               35     -0.071061   2 C  dxz       

 Vector   42  Occ=0.000000D+00  E= 5.124263D-01
              MO Center=  8.6D-05,  5.1D-01, -3.7D-04, r^2= 3.8D+00
   Bfn.  Coefficient  Atom+Function         Bfn.  Coefficient  Atom+Function  
  ----- ------------  ---------------      ----- ------------  ---------------
    31     -1.111086   2 C  py              107      1.111054   6 C  py        
    48      1.067100   3 N  s                86     -1.067088   5 N  s         
    11      1.035928   1 C  px               68      0.974814   4 C  px        
    25      0.537248   2 C  s               101     -0.537250   6 C  s         
    64     -0.509361   4 C  px               29     -0.468162   2 C  s         

 Vector   43  Occ=0.000000D+00  E= 5.342897D-01
              MO Center= -1.3D-04, -8.6D-01,  3.4D-04, r^2= 4.6D+00
   Bfn.  Coefficient  Atom+Function         Bfn.  Coefficient  Atom+Function  
  ----- ------------  ---------------      ----- ------------  ---------------
    13      1.664778   1 C  pz               32     -1.120983   2 C  pz        
   108     -1.120981   6 C  pz                9     -0.660278   1 C  pz        
    70      0.526639   4 C  pz               28      0.422202   2 C  pz        
   104      0.422201   6 C  pz               66     -0.273765   4 C  pz        
     5     -0.175400   1 C  pz               24      0.113684   2 C  pz        

 Vector   44  Occ=0.000000D+00  E= 5.519620D-01
              MO Center= -1.5D-04, -9.8D-01,  3.8D-04, r^2= 5.3D+00
   Bfn.  Coefficient  Atom+Function         Bfn.  Coefficient  Atom+Function  
  ----- ------------  ---------------      ----- ------------  ---------------
    11      3.308588   1 C  px               30      1.627082   2 C  px        
   106      1.627457   6 C  px               31     -1.228187   2 C  py        
   107      1.227694   6 C  py               68     -1.160761   4 C  px        
   120      1.146921   8 H  s               126     -1.146918  10 H  s         
    29      0.981648   2 C  s               105     -0.981607   6 C  s         

 Vector   45  Occ=0.000000D+00  E= 5.597568D-01
              MO Center= -3.1D-05, -2.3D-01,  5.2D-04, r^2= 4.8D+00
   Bfn.  Coefficient  Atom+Function         Bfn.  Coefficient  Atom+Function  
  ----- ------------  ---------------      ----- ------------  ---------------
    67      1.545903   4 C  s                48     -1.180057   3 N  s         
    86     -1.180063   5 N  s                10      1.026860   1 C  s         
    31      0.984421   2 C  py              107      0.984093   6 C  py        
    30     -0.936450   2 C  px              106      0.936731   6 C  px        
   117      0.903113   7 H  s                63     -0.774472   4 C  s         

 Vector   46  Occ=0.000000D+00  E= 5.956457D-01
              MO Center=  7.3D-05,  3.5D-01,  4.9D-04, r^2= 7.6D+00
   Bfn.  Coefficient  Atom+Function         Bfn.  Coefficient  Atom+Function  
  ----- ------------  ---------------      ----- ------------  ---------------
    10      2.453190   1 C  s                69     -2.093314   4 C  py        
   123      1.684059   9 H  s                67     -1.661030   4 C  s         
    30     -1.614863   2 C  px              106      1.614786   6 C  px        
   120     -1.060359   8 H  s               126     -1.060377  10 H  s         
    63      0.598880   4 C  s                65      0.589308   4 C  py        

 Vector   47  Occ=0.000000D+00  E= 6.374734D-01
              MO Center= -1.5D-04, -9.8D-01,  1.3D-03, r^2= 5.1D+00
   Bfn.  Coefficient  Atom+Function         Bfn.  Coefficient  Atom+Function  
  ----- ------------  ---------------      ----- ------------  ---------------
    12      3.399931   1 C  py              117      1.965908   7 H  s         
    67     -1.529311   4 C  s                29     -1.325875   2 C  s         
   105     -1.325801   6 C  s                69     -1.208629   4 C  py        
    30     -1.024503   2 C  px              106      1.024263   6 C  px        
   123      0.974898   9 H  s                 8     -0.866231   1 C  py        

 Vector   48  Occ=0.000000D+00  E= 6.449228D-01
              MO Center= -5.2D-05, -3.6D-01, -2.4D-04, r^2= 5.6D+00
   Bfn.  Coefficient  Atom+Function         Bfn.  Coefficient  Atom+Function  
  ----- ------------  ---------------      ----- ------------  ---------------
    29      3.253741   2 C  s               105     -3.253737   6 C  s         
    11      2.855046   1 C  px               31     -1.977153   2 C  py        
   107      1.977342   6 C  py              120     -1.069263   8 H  s         
   126      1.069256  10 H  s                25     -0.845376   2 C  s         
   101      0.845383   6 C  s                30     -0.637504   2 C  px        

 Vector   49  Occ=0.000000D+00  E= 6.842997D-01
              MO Center=  1.1D-04,  7.0D-01, -1.7D-04, r^2= 4.8D+00
   Bfn.  Coefficient  Atom+Function         Bfn.  Coefficient  Atom+Function  
  ----- ------------  ---------------      ----- ------------  ---------------
    12      1.227965   1 C  py               30     -0.966096   2 C  px        
   106      0.965909   6 C  px               50     -0.948257   3 N  py        
    88     -0.947963   5 N  py               49      0.894925   3 N  px        
    87     -0.895226   5 N  px               63     -0.659667   4 C  s         
    31     -0.594592   2 C  py              107     -0.594867   6 C  py        

 Vector   50  Occ=0.000000D+00  E= 6.899346D-01
              MO Center=  2.3D-05,  1.4D-01, -9.5D-05, r^2= 6.0D+00
   Bfn.  Coefficient  Atom+Function         Bfn.  Coefficient  Atom+Function  
  ----- ------------  ---------------      ----- ------------  ---------------
    30      1.633238   2 C  px              106     -1.632965   6 C  px        
    67     -1.546715   4 C  s                69     -1.426541   4 C  py        
    12     -1.378878   1 C  py              123      1.157756   9 H  s         
   120      1.146040   8 H  s               126      1.146047  10 H  s         
    31      0.966044   2 C  py              107      0.966554   6 C  py        

 Vector   51  Occ=0.000000D+00  E= 6.920825D-01
              MO Center= -1.4D-06, -1.3D-01,  1.1D-04, r^2= 4.3D+00
   Bfn.  Coefficient  Atom+Function         Bfn.  Coefficient  Atom+Function  
  ----- ------------  ---------------      ----- ------------  ---------------
    29      1.873985   2 C  s               105     -1.874052   6 C  s         
    11      1.360685   1 C  px               49      0.930630   3 N  px        
    87      0.930579   5 N  px                7     -0.571933   1 C  px        
    30      0.528266   2 C  px              106      0.528190   6 C  px        
    64      0.478199   4 C  px               25     -0.455878   2 C  s         

 Vector   52  Occ=0.000000D+00  E= 7.046388D-01
              MO Center=  1.3D-04,  7.3D-01, -2.6D-04, r^2= 3.8D+00
   Bfn.  Coefficient  Atom+Function         Bfn.  Coefficient  Atom+Function  
  ----- ------------  ---------------      ----- ------------  ---------------
    51      1.103244   3 N  pz               89     -1.103245   5 N  pz        
    47     -0.613775   3 N  pz               85      0.613776   5 N  pz        
    32     -0.492034   2 C  pz              108      0.492034   6 C  pz        
    43     -0.169458   3 N  pz               81      0.169458   5 N  pz        
    73      0.114926   4 C  dxz              28      0.076573   2 C  pz        

 Vector   53  Occ=0.000000D+00  E= 7.651074D-01
              MO Center= -7.0D-05, -6.3D-01,  2.7D-04, r^2= 4.6D+00
   Bfn.  Coefficient  Atom+Function         Bfn.  Coefficient  Atom+Function  
  ----- ------------  ---------------      ----- ------------  ---------------
    10      8.475112   1 C  s                29     -4.293680   2 C  s         
   105     -4.293756   6 C  s                69      1.644837   4 C  py        
    30     -1.550691   2 C  px              106      1.551131   6 C  px        
    12      1.540101   1 C  py                6     -1.431819   1 C  s         
    31      1.385770   2 C  py              107      1.385326   6 C  py        

 Vector   54  Occ=0.000000D+00  E= 7.813065D-01
              MO Center= -3.7D-05, -1.6D-01,  2.3D-04, r^2= 5.3D+00
   Bfn.  Coefficient  Atom+Function         Bfn.  Coefficient  Atom+Function  
  ----- ------------  ---------------      ----- ------------  ---------------
    29      4.500207   2 C  s               105     -4.500065   6 C  s         
    11      4.325296   1 C  px               31     -2.286298   2 C  py        
   107      2.286003   6 C  py               49     -0.903707   3 N  px        
    87     -0.903959   5 N  px               50      0.880143   3 N  py        
    88     -0.879839   5 N  py               30      0.816951   2 C  px        

 Vector   55  Occ=0.000000D+00  E= 7.921680D-01
              MO Center= -3.7D-05, -2.3D-01, -1.2D-02, r^2= 4.7D+00
   Bfn.  Coefficient  Atom+Function         Bfn.  Coefficient  Atom+Function  
  ----- ------------  ---------------      ----- ------------  ---------------
    12      3.615418   1 C  py               69      2.830987   4 C  py        
   116      1.553790   7 H  s                67     -1.299784   4 C  s         
   122     -1.068420   9 H  s                48      1.047171   3 N  s         
    86      1.047182   5 N  s               117      0.996915   7 H  s         
   123     -0.745760   9 H  s                25     -0.607578   2 C  s         

 Vector   56  Occ=0.000000D+00  E= 7.993958D-01
              MO Center=  1.2D-04,  6.9D-01,  1.1D-02, r^2= 4.4D+00
   Bfn.  Coefficient  Atom+Function         Bfn.  Coefficient  Atom+Function  
  ----- ------------  ---------------      ----- ------------  ---------------
    51      1.504654   3 N  pz               89      1.504653   5 N  pz        
    70     -1.058004   4 C  pz               32     -0.774484   2 C  pz        
   108     -0.774484   6 C  pz               13      0.679646   1 C  pz        
    47     -0.627802   3 N  pz               85     -0.627802   5 N  pz        
    43     -0.162830   3 N  pz               81     -0.162830   5 N  pz        

 Vector   57  Occ=0.000000D+00  E= 8.382550D-01
              MO Center=  1.9D-06, -4.7D-02,  1.2D-03, r^2= 5.5D+00
   Bfn.  Coefficient  Atom+Function         Bfn.  Coefficient  Atom+Function  
  ----- ------------  ---------------      ----- ------------  ---------------
    30      3.714477   2 C  px              106      3.713936   6 C  px        
    31      1.760503   2 C  py              107     -1.761675   6 C  py        
    29      1.466840   2 C  s               105     -1.466885   6 C  s         
   119      1.420601   8 H  s               125     -1.420601  10 H  s         
    68      1.300216   4 C  px              120      1.004924   8 H  s         

 Vector   58  Occ=0.000000D+00  E= 8.985284D-01
              MO Center=  2.2D-05,  6.3D-02, -2.9D-04, r^2= 5.4D+00
   Bfn.  Coefficient  Atom+Function         Bfn.  Coefficient  Atom+Function  
  ----- ------------  ---------------      ----- ------------  ---------------
    12      6.357303   1 C  py               29     -6.098931   2 C  s         
   105     -6.099017   6 C  s                67      5.823976   4 C  s         
    10      5.481900   1 C  s                31     -2.824222   2 C  py        
   107     -2.825002   6 C  py               30     -2.502682   2 C  px        
   106      2.501780   6 C  px               69     -2.171227   4 C  py        

 Vector   59  Occ=0.000000D+00  E= 1.002641D+00
              MO Center=  4.8D-05,  4.8D-01, -6.7D-04, r^2= 5.4D+00
   Bfn.  Coefficient  Atom+Function         Bfn.  Coefficient  Atom+Function  
  ----- ------------  ---------------      ----- ------------  ---------------
    68      3.648532   4 C  px               50      3.590750   3 N  py        
    88     -3.591269   5 N  py               31      3.119342   2 C  py        
   107     -3.118805   6 C  py               11     -2.826782   1 C  px        
    49      1.791841   3 N  px               87      1.790619   5 N  px        
    30     -1.679803   2 C  px              106     -1.680659   6 C  px        

 Vector   60  Occ=0.000000D+00  E= 1.028979D+00
              MO Center=  1.1D-04,  4.2D-01, -1.0D-03, r^2= 5.6D+00
   Bfn.  Coefficient  Atom+Function         Bfn.  Coefficient  Atom+Function  
  ----- ------------  ---------------      ----- ------------  ---------------
    10      9.104437   1 C  s                12      5.262238   1 C  py        
    30     -4.933817   2 C  px              106      4.933724   6 C  px        
    29     -4.154172   2 C  s               105     -4.154200   6 C  s         
    69     -4.015815   4 C  py               50      1.770181   3 N  py        
    88      1.770692   5 N  py              122      1.543745   9 H  s         

 Vector   61  Occ=0.000000D+00  E= 1.046429D+00
              MO Center= -7.7D-05, -5.8D-01,  3.3D-04, r^2= 2.3D+00
   Bfn.  Coefficient  Atom+Function         Bfn.  Coefficient  Atom+Function  
  ----- ------------  ---------------      ----- ------------  ---------------
    18      0.883518   1 C  dyz              35      0.705656   2 C  dxz       
   111     -0.705572   6 C  dxz              75     -0.571246   4 C  dyz       
    37      0.319311   2 C  dyz             113      0.319514   6 C  dyz       
    54      0.154477   3 N  dxz              92     -0.154505   5 N  dxz       
     9     -0.144136   1 C  pz               51     -0.116914   3 N  pz        

 Vector   62  Occ=0.000000D+00  E= 1.057665D+00
              MO Center= -7.0D-05, -4.4D-01,  6.0D-05, r^2= 2.3D+00
   Bfn.  Coefficient  Atom+Function         Bfn.  Coefficient  Atom+Function  
  ----- ------------  ---------------      ----- ------------  ---------------
    16      0.768970   1 C  dxz              37      0.573912   2 C  dyz       
   113     -0.573787   6 C  dyz              73      0.545465   4 C  dxz       
    35     -0.433812   2 C  dxz             111     -0.433967   6 C  dxz       
    56     -0.203404   3 N  dyz              94      0.203445   5 N  dyz       
    54     -0.116516   3 N  dxz              92     -0.116444   5 N  dxz       

 Vector   63  Occ=0.000000D+00  E= 1.117267D+00
              MO Center=  5.9D-05,  1.7D-01, -4.1D-04, r^2= 3.8D+00
   Bfn.  Coefficient  Atom+Function         Bfn.  Coefficient  Atom+Function  
  ----- ------------  ---------------      ----- ------------  ---------------
    10      6.438440   1 C  s                48      6.237699   3 N  s         
    86      6.237900   5 N  s                29     -5.260510   2 C  s         
   105     -5.260554   6 C  s                12      3.937519   1 C  py        
    67     -2.950458   4 C  s                30     -2.686981   2 C  px        
   106      2.686552   6 C  px               69      1.966482   4 C  py        

 Vector   64  Occ=0.000000D+00  E= 1.127692D+00
              MO Center=  1.0D-04,  7.6D-01,  2.1D-04, r^2= 4.0D+00
   Bfn.  Coefficient  Atom+Function         Bfn.  Coefficient  Atom+Function  
  ----- ------------  ---------------      ----- ------------  ---------------
    48      5.848945   3 N  s                86     -5.848720   5 N  s         
    68      2.539569   4 C  px               31     -1.885745   2 C  py        
   107      1.886178   6 C  py               30     -1.576400   2 C  px        
   106     -1.575683   6 C  px               49      1.528967   3 N  px        
    87      1.528864   5 N  px               44     -1.355745   3 N  s         

 Vector   65  Occ=0.000000D+00  E= 1.267031D+00
              MO Center= -2.7D-05, -1.9D-01, -4.2D-04, r^2= 2.5D+00
   Bfn.  Coefficient  Atom+Function         Bfn.  Coefficient  Atom+Function  
  ----- ------------  ---------------      ----- ------------  ---------------
    35      0.824288   2 C  dxz             111      0.824135   6 C  dxz       
    73      0.759690   4 C  dxz              37      0.467180   2 C  dyz       
   113     -0.467443   6 C  dyz              16     -0.394360   1 C  dxz       
    56     -0.240920   3 N  dyz              94      0.240931   5 N  dyz       
    28     -0.108639   2 C  pz              104      0.108638   6 C  pz        

 Vector   66  Occ=0.000000D+00  E= 1.269632D+00
              MO Center=  1.2D-04,  7.2D-01,  2.7D-04, r^2= 2.0D+00
   Bfn.  Coefficient  Atom+Function         Bfn.  Coefficient  Atom+Function  
  ----- ------------  ---------------      ----- ------------  ---------------
    75      1.445770   4 C  dyz              18      0.671864   1 C  dyz       
    70     -0.341165   4 C  pz               54     -0.244317   3 N  dxz       
    92      0.244361   5 N  dxz              51      0.194098   3 N  pz        
    89      0.194098   5 N  pz               35      0.183095   2 C  dxz       
   111     -0.183118   6 C  dxz              13      0.151307   1 C  pz        

 Vector   67  Occ=0.000000D+00  E= 1.295411D+00
              MO Center= -1.9D-05, -1.6D-01, -2.6D-04, r^2= 4.0D+00
   Bfn.  Coefficient  Atom+Function         Bfn.  Coefficient  Atom+Function  
  ----- ------------  ---------------      ----- ------------  ---------------
    48     -3.176969   3 N  s                86     -3.176965   5 N  s         
    29      2.946128   2 C  s               105      2.946153   6 C  s         
    12     -2.015024   1 C  py               67      1.856198   4 C  s         
    10     -1.542573   1 C  s               116     -0.976458   7 H  s         
    31      0.935233   2 C  py              107      0.935357   6 C  py        

 Vector   68  Occ=0.000000D+00  E= 1.341354D+00
              MO Center= -4.1D-05, -2.9D-01,  6.3D-04, r^2= 2.6D+00
   Bfn.  Coefficient  Atom+Function         Bfn.  Coefficient  Atom+Function  
  ----- ------------  ---------------      ----- ------------  ---------------
    37      1.048423   2 C  dyz             113      1.048407   6 C  dyz       
    18     -0.371087   1 C  dyz              75      0.363272   4 C  dyz       
    56     -0.344137   3 N  dyz              94     -0.344148   5 N  dyz       
    51     -0.224166   3 N  pz               89     -0.224167   5 N  pz        
     9      0.120556   1 C  pz               70      0.117223   4 C  pz        

 Vector   69  Occ=0.000000D+00  E= 1.376198D+00
              MO Center=  7.5D-05,  4.2D-01, -5.8D-05, r^2= 2.5D+00
   Bfn.  Coefficient  Atom+Function         Bfn.  Coefficient  Atom+Function  
  ----- ------------  ---------------      ----- ------------  ---------------
    73      1.124108   4 C  dxz              37     -0.568772   2 C  dyz       
   113      0.568903   6 C  dyz              16     -0.514582   1 C  dxz       
    54     -0.420460   3 N  dxz              92     -0.420473   5 N  dxz       
    35     -0.400370   2 C  dxz             111     -0.400187   6 C  dxz       
    51      0.284633   3 N  pz               89     -0.284633   5 N  pz        

 Vector   70  Occ=0.000000D+00  E= 1.499896D+00
              MO Center=  8.0D-05,  4.3D-01,  3.4D-04, r^2= 3.7D+00
   Bfn.  Coefficient  Atom+Function         Bfn.  Coefficient  Atom+Function  
  ----- ------------  ---------------      ----- ------------  ---------------
   122      1.409063   9 H  s               116     -1.022348   7 H  s         
    67     -0.869112   4 C  s                12     -0.847149   1 C  py        
    74     -0.804651   4 C  dyy              29      0.796735   2 C  s         
   105      0.796760   6 C  s                17      0.542106   1 C  dyy       
    69     -0.529795   4 C  py               76      0.488694   4 C  dzz       

 Vector   71  Occ=0.000000D+00  E= 1.529142D+00
              MO Center= -1.0D-04, -6.8D-01, -5.1D-06, r^2= 3.4D+00
   Bfn.  Coefficient  Atom+Function         Bfn.  Coefficient  Atom+Function  
  ----- ------------  ---------------      ----- ------------  ---------------
   119     -1.246509   8 H  s               125      1.246513  10 H  s         
    29      1.155308   2 C  s               105     -1.155279   6 C  s         
    33      0.586337   2 C  dxx             109     -0.586189   6 C  dxx       
    31     -0.488656   2 C  py              107      0.488766   6 C  py        
    15     -0.465816   1 C  dxy              34      0.455234   2 C  dxy       

 Vector   72  Occ=0.000000D+00  E= 1.557541D+00
              MO Center= -5.0D-05, -3.8D-01,  2.9D-04, r^2= 2.8D+00
   Bfn.  Coefficient  Atom+Function         Bfn.  Coefficient  Atom+Function  
  ----- ------------  ---------------      ----- ------------  ---------------
    10      2.197367   1 C  s                12      1.799994   1 C  py        
    29     -1.279851   2 C  s               105     -1.279864   6 C  s         
    48      1.255327   3 N  s                86      1.255339   5 N  s         
    67     -0.739393   4 C  s                 6     -0.658064   1 C  s         
    19     -0.612496   1 C  dzz              34     -0.503110   2 C  dxy       

 Vector   73  Occ=0.000000D+00  E= 1.569236D+00
              MO Center= -9.0D-05, -5.9D-01,  3.8D-04, r^2= 2.9D+00
   Bfn.  Coefficient  Atom+Function         Bfn.  Coefficient  Atom+Function  
  ----- ------------  ---------------      ----- ------------  ---------------
    11      1.522360   1 C  px               15      0.976623   1 C  dxy       
    68     -0.980135   4 C  px               50     -0.932442   3 N  py        
    88      0.932555   5 N  py               34      0.831622   2 C  dxy       
   110      0.831361   6 C  dxy              31     -0.534548   2 C  py        
   107      0.534549   6 C  py               29      0.528978   2 C  s         

 Vector   74  Occ=0.000000D+00  E= 1.714938D+00
              MO Center= -6.7D-05, -4.6D-01,  4.7D-04, r^2= 4.0D+00
   Bfn.  Coefficient  Atom+Function         Bfn.  Coefficient  Atom+Function  
  ----- ------------  ---------------      ----- ------------  ---------------
   116      1.353669   7 H  s                10     -0.958398   1 C  s         
    69      0.795010   4 C  py               67     -0.774688   4 C  s         
    34      0.742995   2 C  dxy             110     -0.742773   6 C  dxy       
    12      0.638288   1 C  py              119     -0.619032   8 H  s         
   125     -0.619030  10 H  s               122      0.517501   9 H  s         

 Vector   75  Occ=0.000000D+00  E= 1.763131D+00
              MO Center=  1.2D-04,  7.2D-01, -2.0D-04, r^2= 2.6D+00
   Bfn.  Coefficient  Atom+Function         Bfn.  Coefficient  Atom+Function  
  ----- ------------  ---------------      ----- ------------  ---------------
    72      1.578541   4 C  dxy              30     -1.161984   2 C  px        
   106     -1.162121   6 C  px               29     -0.722964   2 C  s         
   105      0.722978   6 C  s                49      0.697133   3 N  px        
    50      0.699368   3 N  py               87      0.696912   5 N  px        
    88     -0.699587   5 N  py               11     -0.640649   1 C  px        

 Vector   76  Occ=0.000000D+00  E= 1.826547D+00
              MO Center= -1.3D-04, -8.5D-01,  4.9D-04, r^2= 2.2D+00
   Bfn.  Coefficient  Atom+Function         Bfn.  Coefficient  Atom+Function  
  ----- ------------  ---------------      ----- ------------  ---------------
    18      1.469437   1 C  dyz              35     -1.102374   2 C  dxz       
   111      1.102452   6 C  dxz              13      0.673863   1 C  pz        
    32     -0.426466   2 C  pz              108     -0.426467   6 C  pz        
    75     -0.394179   4 C  dyz              37      0.234105   2 C  dyz       
   113      0.233752   6 C  dyz               5      0.201338   1 C  pz        

 Vector   77  Occ=0.000000D+00  E= 1.859918D+00
              MO Center=  7.2D-05,  4.1D-01,  1.5D-04, r^2= 2.8D+00
   Bfn.  Coefficient  Atom+Function         Bfn.  Coefficient  Atom+Function  
  ----- ------------  ---------------      ----- ------------  ---------------
    67      1.870968   4 C  s                69     -1.306168   4 C  py        
    76     -0.920331   4 C  dzz              71      0.764832   4 C  dxx       
    19      0.701191   1 C  dzz              29     -0.648067   2 C  s         
   105     -0.648090   6 C  s                30     -0.602193   2 C  px        
   106      0.602016   6 C  px               31     -0.578190   2 C  py        

 Vector   78  Occ=0.000000D+00  E= 1.888194D+00
              MO Center= -4.0D-05, -3.0D-01,  5.5D-04, r^2= 2.8D+00
   Bfn.  Coefficient  Atom+Function         Bfn.  Coefficient  Atom+Function  
  ----- ------------  ---------------      ----- ------------  ---------------
    29      2.012457   2 C  s               105     -2.012472   6 C  s         
    30      0.956695   2 C  px              106      0.956483   6 C  px        
    38     -0.771436   2 C  dzz             114      0.771437   6 C  dzz       
    72      0.728146   4 C  dxy              31      0.687562   2 C  py        
   107     -0.687872   6 C  py               34     -0.636873   2 C  dxy       

 Vector   79  Occ=0.000000D+00  E= 1.949149D+00
              MO Center= -1.0D-04, -6.7D-01,  4.1D-05, r^2= 2.4D+00
   Bfn.  Coefficient  Atom+Function         Bfn.  Coefficient  Atom+Function  
  ----- ------------  ---------------      ----- ------------  ---------------
    16      1.638930   1 C  dxz              35      0.840975   2 C  dxz       
   111      0.841135   6 C  dxz              37     -0.512885   2 C  dyz       
   113      0.512612   6 C  dyz              73      0.447600   4 C  dxz       
    56      0.412875   3 N  dyz              94     -0.412854   5 N  dyz       
    32      0.236710   2 C  pz              108     -0.236708   6 C  pz        

 Vector   80  Occ=0.000000D+00  E= 1.955953D+00
              MO Center= -1.3D-04, -8.9D-01,  3.6D-04, r^2= 3.1D+00
   Bfn.  Coefficient  Atom+Function         Bfn.  Coefficient  Atom+Function  
  ----- ------------  ---------------      ----- ------------  ---------------
    10      2.305816   1 C  s               116     -1.104494   7 H  s         
    29     -1.078205   2 C  s               105     -1.078191   6 C  s         
    31      0.923618   2 C  py              107      0.923510   6 C  py        
   119      0.816321   8 H  s               125      0.816328  10 H  s         
    33     -0.750303   2 C  dxx             109     -0.750463   6 C  dxx       

 Vector   81  Occ=0.000000D+00  E= 2.134960D+00
              MO Center=  6.8D-05,  4.4D-01,  3.3D-05, r^2= 4.7D+00
   Bfn.  Coefficient  Atom+Function         Bfn.  Coefficient  Atom+Function  
  ----- ------------  ---------------      ----- ------------  ---------------
   122      1.359543   9 H  s                12     -0.796298   1 C  py        
   121     -0.718302   9 H  s               119      0.698401   8 H  s         
   125      0.698388  10 H  s                69     -0.611313   4 C  py        
   118     -0.429189   8 H  s               124     -0.429183  10 H  s         
    61      0.407549   4 C  py              117     -0.409340   7 H  s         

 Vector   82  Occ=0.000000D+00  E= 2.219811D+00
              MO Center= -5.5D-05, -4.1D-01,  4.3D-05, r^2= 3.8D+00
   Bfn.  Coefficient  Atom+Function         Bfn.  Coefficient  Atom+Function  
  ----- ------------  ---------------      ----- ------------  ---------------
    11      1.537423   1 C  px              119     -1.129435   8 H  s         
   125      1.129439  10 H  s                15      0.923148   1 C  dxy       
    31     -0.852080   2 C  py              107      0.852117   6 C  py        
    29      0.791057   2 C  s               105     -0.790993   6 C  s         
   118      0.525797   8 H  s               124     -0.525797  10 H  s         

 Vector   83  Occ=0.000000D+00  E= 2.235405D+00
              MO Center= -9.6D-05, -6.2D-01,  3.4D-04, r^2= 2.9D+00
   Bfn.  Coefficient  Atom+Function         Bfn.  Coefficient  Atom+Function  
  ----- ------------  ---------------      ----- ------------  ---------------
    15      1.949275   1 C  dxy              11      1.786517   1 C  px        
    29      1.424720   2 C  s               105     -1.424620   6 C  s         
    30      0.944909   2 C  px              106      0.945099   6 C  px        
    34     -0.785442   2 C  dxy             110     -0.784811   6 C  dxy       
    31     -0.751918   2 C  py               48      0.755525   3 N  s         

 Vector   84  Occ=0.000000D+00  E= 2.254975D+00
              MO Center=  1.3D-04,  7.7D-01, -2.3D-04, r^2= 2.1D+00
   Bfn.  Coefficient  Atom+Function         Bfn.  Coefficient  Atom+Function  
  ----- ------------  ---------------      ----- ------------  ---------------
    54      0.934330   3 N  dxz              92     -0.934162   5 N  dxz       
    75      0.620923   4 C  dyz              62     -0.598025   4 C  pz        
    56      0.505665   3 N  dyz              94      0.505969   5 N  dyz       
    70     -0.501350   4 C  pz               66      0.437792   4 C  pz        
    37      0.315171   2 C  dyz             113      0.315092   6 C  dyz       

 Vector   85  Occ=0.000000D+00  E= 2.285638D+00
              MO Center= -1.1D-04, -7.3D-01,  5.2D-04, r^2= 3.2D+00
   Bfn.  Coefficient  Atom+Function         Bfn.  Coefficient  Atom+Function  
  ----- ------------  ---------------      ----- ------------  ---------------
    10      6.378358   1 C  s                29     -4.730031   2 C  s         
   105     -4.730076   6 C  s                12      3.792491   1 C  py        
    30     -2.381400   2 C  px              106      2.381123   6 C  px        
    67      1.630845   4 C  s                69     -1.290572   4 C  py        
   116      0.994313   7 H  s                31     -0.953061   2 C  py        

 Vector   86  Occ=0.000000D+00  E= 2.294568D+00
              MO Center=  8.0D-05,  4.2D-01, -2.0D-04, r^2= 2.6D+00
   Bfn.  Coefficient  Atom+Function         Bfn.  Coefficient  Atom+Function  
  ----- ------------  ---------------      ----- ------------  ---------------
    54      0.973940   3 N  dxz              92      0.974154   5 N  dxz       
    73      0.804545   4 C  dxz              37     -0.766684   2 C  dyz       
   113      0.766697   6 C  dyz              56     -0.640445   3 N  dyz       
    94      0.640132   5 N  dyz              16      0.444288   1 C  dxz       
    51      0.366216   3 N  pz               89     -0.366219   5 N  pz        

 Vector   87  Occ=0.000000D+00  E= 2.315563D+00
              MO Center= -1.1D-04, -7.7D-01,  8.7D-04, r^2= 4.3D+00
   Bfn.  Coefficient  Atom+Function         Bfn.  Coefficient  Atom+Function  
  ----- ------------  ---------------      ----- ------------  ---------------
   116      1.402335   7 H  s               115     -0.889973   7 H  s         
   122     -0.880531   9 H  s                10      0.680780   1 C  s         
    12      0.626253   1 C  py                8      0.604452   1 C  py        
   119      0.526387   8 H  s               125      0.526397  10 H  s         
   121      0.518802   9 H  s                 4     -0.506125   1 C  py        

 Vector   88  Occ=0.000000D+00  E= 2.351186D+00
              MO Center=  2.5D-05,  1.3D-01, -1.9D-04, r^2= 2.7D+00
   Bfn.  Coefficient  Atom+Function         Bfn.  Coefficient  Atom+Function  
  ----- ------------  ---------------      ----- ------------  ---------------
    56      0.932191   3 N  dyz              94      0.932038   5 N  dyz       
    37      0.634897   2 C  dyz             113      0.634922   6 C  dyz       
    54     -0.469635   3 N  dxz              92      0.469930   5 N  dxz       
    24      0.444232   2 C  pz              100      0.444231   6 C  pz        
    75     -0.404714   4 C  dyz              51     -0.386404   3 N  pz        

 Vector   89  Occ=0.000000D+00  E= 2.576051D+00
              MO Center= -3.7D-05,  9.1D-01, -4.1D-04, r^2= 2.6D+00
   Bfn.  Coefficient  Atom+Function         Bfn.  Coefficient  Atom+Function  
  ----- ------------  ---------------      ----- ------------  ---------------
    48      1.981844   3 N  s                86      1.981418   5 N  s         
    67     -1.945101   4 C  s                29     -1.122545   2 C  s         
   105     -1.122153   6 C  s                63     -0.887977   4 C  s         
   122     -0.860601   9 H  s                76      0.833801   4 C  dzz       
    69      0.714579   4 C  py               25     -0.635434   2 C  s         

 Vector   90  Occ=0.000000D+00  E= 2.578710D+00
              MO Center=  2.1D-04,  1.1D-01, -2.7D-04, r^2= 3.5D+00
   Bfn.  Coefficient  Atom+Function         Bfn.  Coefficient  Atom+Function  
  ----- ------------  ---------------      ----- ------------  ---------------
    48     -2.027316   3 N  s                86      2.027732   5 N  s         
    29      1.862581   2 C  s               105     -1.862831   6 C  s         
    30      0.961225   2 C  px              106      0.961119   6 C  px        
    49     -0.826553   3 N  px               87     -0.826784   5 N  px        
   119      0.800975   8 H  s               125     -0.801007  10 H  s         

 Vector   91  Occ=0.000000D+00  E= 2.659024D+00
              MO Center= -8.1D-05, -5.8D-01,  3.6D-04, r^2= 2.3D+00
   Bfn.  Coefficient  Atom+Function         Bfn.  Coefficient  Atom+Function  
  ----- ------------  ---------------      ----- ------------  ---------------
     9      1.010913   1 C  pz                5     -0.884823   1 C  pz        
    56      0.594549   3 N  dyz              94      0.594454   5 N  dyz       
    28      0.538626   2 C  pz              104      0.538642   6 C  pz        
    37      0.500619   2 C  dyz             113      0.500569   6 C  dyz       
    24     -0.480200   2 C  pz              100     -0.480213   6 C  pz        

 Vector   92  Occ=0.000000D+00  E= 2.667488D+00
              MO Center= -1.6D-05, -1.1D-01,  1.2D-04, r^2= 2.7D+00
   Bfn.  Coefficient  Atom+Function         Bfn.  Coefficient  Atom+Function  
  ----- ------------  ---------------      ----- ------------  ---------------
    73     -0.901399   4 C  dxz              16      0.856862   1 C  dxz       
    28      0.717399   2 C  pz              104     -0.717389   6 C  pz        
    54     -0.705615   3 N  dxz              92     -0.705425   5 N  dxz       
    24     -0.608806   2 C  pz              100      0.608798   6 C  pz        
    56     -0.572947   3 N  dyz              94      0.573186   5 N  dyz       

 Vector   93  Occ=0.000000D+00  E= 2.762758D+00
              MO Center=  5.6D-05,  2.9D-01, -6.7D-05, r^2= 3.0D+00
   Bfn.  Coefficient  Atom+Function         Bfn.  Coefficient  Atom+Function  
  ----- ------------  ---------------      ----- ------------  ---------------
    67      1.675879   4 C  s                10     -1.048542   1 C  s         
    50     -0.970900   3 N  py               88     -0.971162   5 N  py        
    49     -0.831241   3 N  px               87      0.830933   5 N  px        
    53     -0.818479   3 N  dxy              91      0.819103   5 N  dxy       
    31     -0.763249   2 C  py              107     -0.763084   6 C  py        

 Vector   94  Occ=0.000000D+00  E= 2.792947D+00
              MO Center=  1.6D-04,  1.0D+00, -4.5D-04, r^2= 1.5D+00
   Bfn.  Coefficient  Atom+Function         Bfn.  Coefficient  Atom+Function  
  ----- ------------  ---------------      ----- ------------  ---------------
    66      1.427736   4 C  pz               62     -1.122577   4 C  pz        
    54     -0.690044   3 N  dxz              92      0.689920   5 N  dxz       
    70     -0.468920   4 C  pz               56     -0.357117   3 N  dyz       
    94     -0.357315   5 N  dyz              75     -0.310149   4 C  dyz       
    28     -0.225541   2 C  pz              104     -0.225518   6 C  pz        

 Vector   95  Occ=0.000000D+00  E= 2.800295D+00
              MO Center=  3.5D-05,  9.7D-02,  7.0D-04, r^2= 2.6D+00
   Bfn.  Coefficient  Atom+Function         Bfn.  Coefficient  Atom+Function  
  ----- ------------  ---------------      ----- ------------  ---------------
    56      0.973728   3 N  dyz              94     -0.973868   5 N  dyz       
    28      0.843796   2 C  pz              104     -0.843802   6 C  pz        
    73      0.757815   4 C  dxz              24     -0.662106   2 C  pz        
   100      0.662111   6 C  pz               37      0.444550   2 C  dyz       
   113     -0.444523   6 C  dyz              54      0.408016   3 N  dxz       

 Vector   96  Occ=0.000000D+00  E= 2.820414D+00
              MO Center=  4.2D-05,  2.1D-01, -9.3D-04, r^2= 2.7D+00
   Bfn.  Coefficient  Atom+Function         Bfn.  Coefficient  Atom+Function  
  ----- ------------  ---------------      ----- ------------  ---------------
    53      0.904203   3 N  dxy              91      0.903705   5 N  dxy       
    34      0.672959   2 C  dxy             110      0.673223   6 C  dxy       
    72      0.499838   4 C  dxy              48      0.478365   3 N  s         
    86     -0.478369   5 N  s                55      0.423023   3 N  dyy       
    93     -0.423323   5 N  dyy             119      0.373629   8 H  s         

 Vector   97  Occ=0.000000D+00  E= 2.871598D+00
              MO Center=  9.7D-05,  5.7D-01, -2.5D-04, r^2= 2.6D+00
   Bfn.  Coefficient  Atom+Function         Bfn.  Coefficient  Atom+Function  
  ----- ------------  ---------------      ----- ------------  ---------------
    68      1.215518   4 C  px               50      1.058685   3 N  py        
    88     -1.058803   5 N  py               31      1.029295   2 C  py        
   107     -1.029250   6 C  py               53      0.790485   3 N  dxy       
    91      0.791009   5 N  dxy              11     -0.725400   1 C  px        
    60      0.665908   4 C  px               55     -0.431725   3 N  dyy       

 Vector   98  Occ=0.000000D+00  E= 2.890565D+00
              MO Center=  3.9D-05,  1.8D-01,  2.5D-04, r^2= 3.3D+00
   Bfn.  Coefficient  Atom+Function         Bfn.  Coefficient  Atom+Function  
  ----- ------------  ---------------      ----- ------------  ---------------
    10      2.320557   1 C  s                29     -1.799681   2 C  s         
   105     -1.799698   6 C  s                12      1.303450   1 C  py        
    67      1.121843   4 C  s                69     -0.966001   4 C  py        
    74      0.837309   4 C  dyy             122      0.797855   9 H  s         
    30     -0.778831   2 C  px              106      0.778654   6 C  px        

 Vector   99  Occ=0.000000D+00  E= 2.919502D+00
              MO Center= -1.3D-04, -8.2D-01,  3.0D-04, r^2= 1.8D+00
   Bfn.  Coefficient  Atom+Function         Bfn.  Coefficient  Atom+Function  
  ----- ------------  ---------------      ----- ------------  ---------------
     9      1.248095   1 C  pz                5     -0.917893   1 C  pz        
    28     -0.869766   2 C  pz              104     -0.869765   6 C  pz        
    24      0.633021   2 C  pz              100      0.633021   6 C  pz        
    13     -0.579676   1 C  pz               18      0.446719   1 C  dyz       
    35     -0.405544   2 C  dxz             111      0.405541   6 C  dxz       

 Vector  100  Occ=0.000000D+00  E= 2.978132D+00
              MO Center= -9.8D-05, -5.8D-01,  6.4D-04, r^2= 2.8D+00
   Bfn.  Coefficient  Atom+Function         Bfn.  Coefficient  Atom+Function  
  ----- ------------  ---------------      ----- ------------  ---------------
    10      1.788853   1 C  s                67     -1.383860   4 C  s         
     6      1.334871   1 C  s                17     -1.064607   1 C  dyy       
    14     -0.979366   1 C  dxx              19     -0.982825   1 C  dzz       
    25      0.889872   2 C  s               101      0.889852   6 C  s         
    63     -0.865639   4 C  s                71      0.713749   4 C  dxx       

 Vector  101  Occ=0.000000D+00  E= 3.023097D+00
              MO Center= -1.0D-04, -7.8D-01,  8.2D-05, r^2= 2.4D+00
   Bfn.  Coefficient  Atom+Function         Bfn.  Coefficient  Atom+Function  
  ----- ------------  ---------------      ----- ------------  ---------------
    29      1.605827   2 C  s               105     -1.605820   6 C  s         
    25      1.310880   2 C  s               101     -1.310897   6 C  s         
    36     -1.149236   2 C  dyy             112      1.149237   6 C  dyy       
    33     -1.109233   2 C  dxx             109      1.109255   6 C  dxx       
    38     -0.895441   2 C  dzz             114      0.895452   6 C  dzz       

 Vector  102  Occ=0.000000D+00  E= 3.096064D+00
              MO Center=  1.3D-04,  7.4D-01,  2.0D-04, r^2= 3.2D+00
   Bfn.  Coefficient  Atom+Function         Bfn.  Coefficient  Atom+Function  
  ----- ------------  ---------------      ----- ------------  ---------------
    10      3.923226   1 C  s                29     -2.133350   2 C  s         
   105     -2.133351   6 C  s                48      1.360980   3 N  s         
    86      1.360971   5 N  s                74     -1.334089   4 C  dyy       
    12      1.268840   1 C  py               63      1.208160   4 C  s         
    71     -1.173955   4 C  dxx              69      1.069378   4 C  py        

 Vector  103  Occ=0.000000D+00  E= 3.159234D+00
              MO Center= -1.0D-04, -7.0D-01,  2.7D-04, r^2= 3.7D+00
   Bfn.  Coefficient  Atom+Function         Bfn.  Coefficient  Atom+Function  
  ----- ------------  ---------------      ----- ------------  ---------------
    12      1.309469   1 C  py               48      1.053031   3 N  s         
    86      1.053040   5 N  s                30     -1.033246   2 C  px        
   106      1.032997   6 C  px                6     -0.808294   1 C  s         
    31     -0.811147   2 C  py              107     -0.811469   6 C  py        
    33     -0.795721   2 C  dxx             109     -0.795687   6 C  dxx       

 Vector  104  Occ=0.000000D+00  E= 3.222680D+00
              MO Center= -1.2D-04, -7.9D-01,  4.4D-04, r^2= 2.6D+00
   Bfn.  Coefficient  Atom+Function         Bfn.  Coefficient  Atom+Function  
  ----- ------------  ---------------      ----- ------------  ---------------
    11      1.552281   1 C  px               31     -1.529206   2 C  py        
   107      1.529529   6 C  py               30     -1.053978   2 C  px        
   106     -1.053490   6 C  px               48      0.980180   3 N  s         
    86     -0.980178   5 N  s                 7     -0.944122   1 C  px        
    50     -0.923598   3 N  py               88      0.923615   5 N  py        

 Vector  105  Occ=0.000000D+00  E= 3.264930D+00
              MO Center= -2.0D-04, -1.2D+00,  8.9D-04, r^2= 1.6D+00
   Bfn.  Coefficient  Atom+Function         Bfn.  Coefficient  Atom+Function  
  ----- ------------  ---------------      ----- ------------  ---------------
    12      2.574832   1 C  py              116      1.179548   7 H  s         
    29     -1.137251   2 C  s               105     -1.137291   6 C  s         
     8     -1.102602   1 C  py                4      0.966457   1 C  py        
   115     -0.807012   7 H  s                31     -0.636467   2 C  py        
   107     -0.636528   6 C  py               26     -0.617425   2 C  px        

 Vector  106  Occ=0.000000D+00  E= 3.352842D+00
              MO Center=  4.2D-05,  2.0D-01, -3.5D-05, r^2= 3.1D+00
   Bfn.  Coefficient  Atom+Function         Bfn.  Coefficient  Atom+Function  
  ----- ------------  ---------------      ----- ------------  ---------------
    10      2.961122   1 C  s                12      2.114620   1 C  py        
    29     -2.063029   2 C  s               105     -2.063059   6 C  s         
    30     -1.431876   2 C  px              106      1.431756   6 C  px        
    65      1.149657   4 C  py               48      1.127365   3 N  s         
    86      1.127378   5 N  s               116      0.850873   7 H  s         

 Vector  107  Occ=0.000000D+00  E= 3.421745D+00
              MO Center= -1.3D-05, -8.5D-02, -5.6D-05, r^2= 2.9D+00
   Bfn.  Coefficient  Atom+Function         Bfn.  Coefficient  Atom+Function  
  ----- ------------  ---------------      ----- ------------  ---------------
    50      1.351797   3 N  py               88     -1.351850   5 N  py        
    27      1.330605   2 C  py              103     -1.330756   6 C  py        
    36      0.990111   2 C  dyy             112     -0.989999   6 C  dyy       
    68      0.949759   4 C  px               29      0.863630   2 C  s         
   105     -0.863600   6 C  s                30     -0.845125   2 C  px        

 Vector  108  Occ=0.000000D+00  E= 3.486201D+00
              MO Center=  9.2D-05,  4.9D-01, -2.5D-04, r^2= 2.7D+00
   Bfn.  Coefficient  Atom+Function         Bfn.  Coefficient  Atom+Function  
  ----- ------------  ---------------      ----- ------------  ---------------
    10      3.275721   1 C  s                69     -2.312120   4 C  py        
    30     -1.863346   2 C  px              106      1.863177   6 C  px        
    12      1.658476   1 C  py               29     -1.607469   2 C  s         
   105     -1.607462   6 C  s                27      1.192487   2 C  py        
   103      1.192534   6 C  py               65      1.182678   4 C  py        

 Vector  109  Occ=0.000000D+00  E= 3.537035D+00
              MO Center=  1.5D-04,  8.7D-01, -3.7D-04, r^2= 1.8D+00
   Bfn.  Coefficient  Atom+Function         Bfn.  Coefficient  Atom+Function  
  ----- ------------  ---------------      ----- ------------  ---------------
    64      2.486481   4 C  px               48      1.549825   3 N  s         
    86     -1.549815   5 N  s                49      1.409436   3 N  px        
    87      1.409226   5 N  px               30     -1.368001   2 C  px        
   106     -1.368095   6 C  px               72     -1.308709   4 C  dxy       
    60     -1.086881   4 C  px               68      0.783430   4 C  px        

 Vector  110  Occ=0.000000D+00  E= 3.644606D+00
              MO Center=  6.8D-05,  3.7D-01, -1.4D-04, r^2= 2.7D+00
   Bfn.  Coefficient  Atom+Function         Bfn.  Coefficient  Atom+Function  
  ----- ------------  ---------------      ----- ------------  ---------------
    48      2.739295   3 N  s                86      2.739300   5 N  s         
    67     -1.710938   4 C  s                71     -1.523318   4 C  dxx       
    10      1.323787   1 C  s                29     -1.297673   2 C  s         
   105     -1.297674   6 C  s                36     -1.052357   2 C  dyy       
   112     -1.052124   6 C  dyy              49      0.890879   3 N  px        

 Vector  111  Occ=0.000000D+00  E= 3.823911D+00
              MO Center=  1.2D-04,  7.2D-01, -4.6D-04, r^2= 2.0D+00
   Bfn.  Coefficient  Atom+Function         Bfn.  Coefficient  Atom+Function  
  ----- ------------  ---------------      ----- ------------  ---------------
    47      1.093033   3 N  pz               85     -1.093032   5 N  pz        
    43     -0.913824   3 N  pz               81      0.913823   5 N  pz        
    51     -0.452782   3 N  pz               89      0.452781   5 N  pz        
    73      0.382745   4 C  dxz              37     -0.196068   2 C  dyz       
   113      0.196062   6 C  dyz              32      0.150675   2 C  pz        

 Vector  112  Occ=0.000000D+00  E= 3.873160D+00
              MO Center=  1.2D-04,  6.7D-01, -4.3D-04, r^2= 2.1D+00
   Bfn.  Coefficient  Atom+Function         Bfn.  Coefficient  Atom+Function  
  ----- ------------  ---------------      ----- ------------  ---------------
    47      1.117133   3 N  pz               85      1.117134   5 N  pz        
    43     -0.912030   3 N  pz               81     -0.912031   5 N  pz        
    51     -0.640577   3 N  pz               89     -0.640577   5 N  pz        
    70      0.402061   4 C  pz               66     -0.293818   4 C  pz        
    32      0.280178   2 C  pz              108      0.280178   6 C  pz        

 Vector  113  Occ=0.000000D+00  E= 4.124274D+00
              MO Center= -1.3D-04, -8.6D-01,  5.0D-04, r^2= 1.7D+00
   Bfn.  Coefficient  Atom+Function         Bfn.  Coefficient  Atom+Function  
  ----- ------------  ---------------      ----- ------------  ---------------
     8      2.556975   1 C  py               14      2.387669   1 C  dxx       
    26     -1.893398   2 C  px              102      1.893822   6 C  px        
    12     -1.516299   1 C  py               27      1.353639   2 C  py        
   103      1.353033   6 C  py               34      1.307863   2 C  dxy       
   110     -1.307259   6 C  dxy              33     -1.279179   2 C  dxx       

 Vector  114  Occ=0.000000D+00  E= 4.139980D+00
              MO Center=  1.3D-04,  7.9D-01, -4.6D-04, r^2= 2.6D+00
   Bfn.  Coefficient  Atom+Function         Bfn.  Coefficient  Atom+Function  
  ----- ------------  ---------------      ----- ------------  ---------------
    48      2.890963   3 N  s                86     -2.890939   5 N  s         
    68      1.157742   4 C  px                7     -0.964580   1 C  px        
    64      0.936416   4 C  px               72     -0.827863   4 C  dxy       
    57     -0.819520   3 N  dzz              95      0.819517   5 N  dzz       
    45      0.800105   3 N  px               83      0.800320   5 N  px        

 Vector  115  Occ=0.000000D+00  E= 4.248975D+00
              MO Center= -1.2D-04, -7.7D-01,  4.8D-04, r^2= 2.0D+00
   Bfn.  Coefficient  Atom+Function         Bfn.  Coefficient  Atom+Function  
  ----- ------------  ---------------      ----- ------------  ---------------
     7      3.952837   1 C  px               15      2.929738   1 C  dxy       
    26      1.952272   2 C  px              102      1.952677   6 C  px        
    34     -1.771842   2 C  dxy             110     -1.771393   6 C  dxy       
    27     -1.314363   2 C  py              103      1.313728   6 C  py        
    33      1.087403   2 C  dxx             109     -1.087963   6 C  dxx       

 Vector  116  Occ=0.000000D+00  E= 4.300202D+00
              MO Center=  9.0D-05,  5.5D-01, -4.5D-04, r^2= 2.5D+00
   Bfn.  Coefficient  Atom+Function         Bfn.  Coefficient  Atom+Function  
  ----- ------------  ---------------      ----- ------------  ---------------
    48      3.653763   3 N  s                86      3.653743   5 N  s         
    29     -2.360610   2 C  s               105     -2.360615   6 C  s         
    10      1.962552   1 C  s                12      1.727791   1 C  py        
    67     -1.562355   4 C  s                45      0.909894   3 N  px        
    83     -0.910031   5 N  px               65      0.880058   4 C  py        

 Vector  117  Occ=0.000000D+00  E= 4.919715D+00
              MO Center=  1.7D-04,  1.0D+00, -3.6D-04, r^2= 1.3D+00
   Bfn.  Coefficient  Atom+Function         Bfn.  Coefficient  Atom+Function  
  ----- ------------  ---------------      ----- ------------  ---------------
    71      1.676401   4 C  dxx              45     -1.297306   3 N  px        
    83      1.296985   5 N  px               52     -1.098113   3 N  dxx       
    90     -1.097896   5 N  dxx              65     -1.042998   4 C  py        
    46     -0.999278   3 N  py               84     -0.999688   5 N  py        
    44      0.802180   3 N  s                82      0.802184   5 N  s         

 Vector  118  Occ=0.000000D+00  E= 5.070229D+00
              MO Center=  3.9D-05,  1.9D-01, -2.4D-04, r^2= 2.1D+00
   Bfn.  Coefficient  Atom+Function         Bfn.  Coefficient  Atom+Function  
  ----- ------------  ---------------      ----- ------------  ---------------
    46      1.677683   3 N  py               84      1.677687   5 N  py        
    27      1.456675   2 C  py              103      1.456661   6 C  py        
    55     -1.411960   3 N  dyy              93     -1.411925   5 N  dyy       
    36      1.139438   2 C  dyy             112      1.139447   6 C  dyy       
    10      0.888490   1 C  s                29     -0.839757   2 C  s         

 Vector  119  Occ=0.000000D+00  E= 5.161376D+00
              MO Center=  2.6D-05,  1.1D-01, -1.6D-04, r^2= 2.1D+00
   Bfn.  Coefficient  Atom+Function         Bfn.  Coefficient  Atom+Function  
  ----- ------------  ---------------      ----- ------------  ---------------
    27      1.938556   2 C  py              103     -1.938303   6 C  py        
     7     -1.683965   1 C  px               46      1.550420   3 N  py        
    84     -1.550351   5 N  py               55     -1.511368   3 N  dyy       
    93      1.511371   5 N  dyy              15     -1.439742   1 C  dxy       
    36      1.007199   2 C  dyy             112     -1.007422   6 C  dyy       

 Vector  120  Occ=0.000000D+00  E= 5.275968D+00
              MO Center=  1.4D-04,  8.6D-01, -3.6D-04, r^2= 1.3D+00
   Bfn.  Coefficient  Atom+Function         Bfn.  Coefficient  Atom+Function  
  ----- ------------  ---------------      ----- ------------  ---------------
    64      2.808744   4 C  px               72     -2.375565   4 C  dxy       
    45      1.717328   3 N  px               83      1.716969   5 N  px        
    52      1.296652   3 N  dxx              90     -1.296426   5 N  dxx       
    46      1.127111   3 N  py               84     -1.127648   5 N  py        
    53      0.725770   3 N  dxy              91      0.726445   5 N  dxy       

 Vector  121  Occ=0.000000D+00  E= 2.646975D+01
              MO Center= -1.8D-04, -6.2D-01,  1.4D-04, r^2= 1.5D+00
   Bfn.  Coefficient  Atom+Function         Bfn.  Coefficient  Atom+Function  
  ----- ------------  ---------------      ----- ------------  ---------------
    21      1.815116   2 C  s                97     -1.814980   6 C  s         
    20     -1.493445   2 C  s                96      1.493333   6 C  s         
    25     -0.772540   2 C  s               101      0.772477   6 C  s         
    29     -0.570443   2 C  s               105      0.570365   6 C  s         
    36      0.499773   2 C  dyy             112     -0.499727   6 C  dyy       

 Vector  122  Occ=0.000000D+00  E= 2.647202D+01
              MO Center=  1.6D-04,  3.9D-01,  1.6D-04, r^2= 1.7D+00
   Bfn.  Coefficient  Atom+Function         Bfn.  Coefficient  Atom+Function  
  ----- ------------  ---------------      ----- ------------  ---------------
    59      2.044354   4 C  s                58     -1.681328   4 C  s         
     2     -1.372485   1 C  s                 1      1.130413   1 C  s         
    63     -0.876575   4 C  s                 6      0.625206   1 C  s         
    71      0.580784   4 C  dxx              74      0.517598   4 C  dyy       
    21     -0.511980   2 C  s                97     -0.512478   6 C  s         

 Vector  123  Occ=0.000000D+00  E= 2.651078D+01
              MO Center= -2.6D-05, -1.9D-01,  1.6D-04, r^2= 1.9D+00
   Bfn.  Coefficient  Atom+Function         Bfn.  Coefficient  Atom+Function  
  ----- ------------  ---------------      ----- ------------  ---------------
    21      1.395661   2 C  s                97      1.395657   6 C  s         
    59      1.346817   4 C  s                20     -1.145955   2 C  s         
    96     -1.145952   6 C  s                58     -1.105309   4 C  s         
     2      0.958101   1 C  s                10     -0.813108   1 C  s         
     1     -0.787914   1 C  s                48     -0.644931   3 N  s         

 Vector  124  Occ=0.000000D+00  E= 2.668019D+01
              MO Center= -1.3D-04, -8.6D-01,  6.4D-04, r^2= 1.2D+00
   Bfn.  Coefficient  Atom+Function         Bfn.  Coefficient  Atom+Function  
  ----- ------------  ---------------      ----- ------------  ---------------
     2      1.964227   1 C  s                 1     -1.604895   1 C  s         
    10     -1.608886   1 C  s                21     -1.058205   2 C  s         
    97     -1.058202   6 C  s                29      0.960858   2 C  s         
   105      0.960858   6 C  s                20      0.863722   2 C  s         
    96      0.863720   6 C  s                59      0.790902   4 C  s         

 Vector  125  Occ=0.000000D+00  E= 3.965274D+01
              MO Center=  1.2D-04,  7.1D-01, -4.5D-04, r^2= 1.5D+00
   Bfn.  Coefficient  Atom+Function         Bfn.  Coefficient  Atom+Function  
  ----- ------------  ---------------      ----- ------------  ---------------
    40      1.873856   3 N  s                78      1.873858   5 N  s         
    39     -1.573706   3 N  s                77     -1.573708   5 N  s         
    48     -0.857290   3 N  s                86     -0.857290   5 N  s         
    44     -0.709834   3 N  s                82     -0.709835   5 N  s         
    29      0.537904   2 C  s               105      0.537907   6 C  s         

 Vector  126  Occ=0.000000D+00  E= 3.967291D+01
              MO Center=  1.2D-04,  7.1D-01, -4.5D-04, r^2= 1.5D+00
   Bfn.  Coefficient  Atom+Function         Bfn.  Coefficient  Atom+Function  
  ----- ------------  ---------------      ----- ------------  ---------------
    40      1.876026   3 N  s                78     -1.876024   5 N  s         
    39     -1.574427   3 N  s                77      1.574426   5 N  s         
    44     -0.719419   3 N  s                82      0.719418   5 N  s         
    48     -0.676735   3 N  s                86      0.676733   5 N  s         
    55      0.496109   3 N  dyy              93     -0.496125   5 N  dyy       


 center of mass
 --------------
 x =   0.00002164 y =   0.05123192 z =   0.00007242

 moments of inertia (a.u.)
 ------------------
         284.747054957828           0.001502869465          -0.002416449220
           0.001502869465         294.676029324358           0.138141259581
          -0.002416449220           0.138141259581         579.422884002335

     Multipole analysis of the density
     ---------------------------------

     L   x y z        total         alpha         beta         nuclear
     -   - - -        -----         -----         ----         -------
     0   0 0 0      0.000000    -21.000000    -21.000000     42.000000

     1   1 0 0     -0.000147     -0.000346     -0.000346      0.000546
     1   0 1 0     -0.911893     -0.414465     -0.414465     -0.082963
     1   0 0 1      0.000856     -0.002116     -0.002116      0.005087

     2   2 0 0    -27.178132    -95.434842    -95.434842    163.691552
     2   1 1 0      0.000747      0.000030      0.000030      0.000686
     2   1 0 1      0.000259     -0.000807     -0.000807      0.001873
     2   0 2 0    -22.528158    -94.995083    -94.995083    167.462009
     2   0 1 1     -0.001158      0.039153      0.039153     -0.079465
     2   0 0 2    -26.603518    -13.301791    -13.301791      0.000063


 Parallel integral file used     509 records with       0 large values

 Line search: 
     step= 1.00 grad=-1.6D-06 hess= 7.5D-07 energy=   -264.071333 mode=accept  
 new step= 1.00                   predicted energy=   -264.071333

          --------
          Step   4
          --------


                         Geometry "geometry" -> "geometry"
                         ---------------------------------

 Output coordinates in angstroms (scale by  1.889725989 to convert to a.u.)

  No.       Tag          Charge          X              Y              Z
 ---- ---------------- ---------- -------------- -------------- --------------
    1 C                    6.0000    -0.00021102    -1.35103272     0.00107781
    2 C                    6.0000    -1.17917034    -0.61910100     0.00011970
    3 N                    7.0000    -1.19258333     0.71186389    -0.00043864
    4 C                    6.0000     0.00021697     1.30024413    -0.00025561
    5 N                    7.0000     1.19282685     0.71147951    -0.00046303
    6 C                    6.0000     1.17898519    -0.61948103     0.00016997
    7 H                    1.0000    -0.00038970    -2.43532258     0.00266024
    8 H                    1.0000    -2.14958769    -1.11151930    -0.00027432
    9 H                    1.0000     0.00039214     2.38796804     0.00004610
   10 H                    1.0000     2.14924473    -1.11220846    -0.00009935

      Atomic Mass 
      ----------- 

      C                 12.000000
      N                 14.003070
      H                  1.007825


 Effective nuclear repulsion energy (a.u.)     209.6450538768

            Nuclear Dipole moment (a.u.) 
            ----------------------------
        X                 Y               Z
 ---------------- ---------------- ----------------
     0.0005460460    -0.0829632271     0.0050874191


                                 NWChem DFT Module
                                 -----------------


             pyrimidine geometry optimization, PBE0/6-311G* Cartesian




 Summary of "ao basis" -> "ao basis" (cartesian)
 ------------------------------------------------------------------------------
       Tag                 Description            Shells   Functions and Types
 ---------------- ------------------------------  ------  ---------------------
 C                          6-311G*                  8       19   4s3p1d
 N                          6-311G*                  8       19   4s3p1d
 H                          6-311G*                  3        3   3s



  The DFT is already converged 

         Total DFT energy =   -264.071332515197


            General Information
            -------------------
          SCF calculation type: DFT
          Wavefunction type:  closed shell.
          No. of atoms     :    10
          No. of electrons :    42
           Alpha electrons :    21
            Beta electrons :    21
          Charge           :     0
          Spin multiplicity:     1
          Use of symmetry is: off; symmetry adaption is: off
          Maximum number of iterations: 100
          AO basis - number of functions:   126
                     number of shells:    60
          Convergence on energy requested:  1.00D-07
          Convergence on density requested:  1.00D-05
          Convergence on gradient requested:  5.00D-04

              XC Information
              --------------
                         PBE0 Method XC Functional
                     Hartree-Fock (Exact) Exchange  0.250          
          PerdewBurkeErnzerhof Exchange Functional  0.750          
            Perdew 1991 LDA Correlation Functional  1.000 local    
           PerdewBurkeErnz. Correlation Functional  1.000 non-local

             Grid Information
             ----------------
          Grid used for XC integration:  fine      
          Radial quadrature: Mura-Knowles        
          Angular quadrature: Lebedev. 
          Tag              B.-S. Rad. Rad. Pts. Rad. Cut. Ang. Pts.
          ---              ---------- --------- --------- ---------
          C                   0.70       70          11.0       590
          N                   0.65       70          11.0       590
          H                   0.35       60          13.0       590
          Grid pruning is: on 
          Number of quadrature shells:   660
          Spatial weights used:  Erf1

          Convergence Information
          -----------------------
          Convergence aids based upon iterative change in 
          total energy or number of iterations. 
          Levelshifting, if invoked, occurs when the 
          HOMO/LUMO gap drops below (HL_TOL):  1.00D-02
          DIIS, if invoked, will attempt to extrapolate 
          using up to (NFOCK): 10 stored Fock matrices.

                    Damping( 0%)  Levelshifting(0.5)       DIIS
                  --------------- ------------------- ---------------
          dE  on:    start            ASAP                start   
          dE off:    2 iters        100 iters           100 iters 


      Screening Tolerance Information
      -------------------------------
          Density screening/tol_rho:  1.00D-10
          AO Gaussian exp screening on grid/accAOfunc:  16
          CD Gaussian exp screening on grid/accCDfunc:  20
          XC Gaussian exp screening on grid/accXCfunc:  20
          Schwarz screening/accCoul:  1.00D-08



                            NWChem DFT Gradient Module
                            --------------------------


             pyrimidine geometry optimization, PBE0/6-311G* Cartesian



  charge          =   0.00
  wavefunction    = closed shell



                         DFT ENERGY GRADIENTS

    atom               coordinates                        gradient
                 x          y          z           x          y          z
   1 C      -0.000399  -2.553082   0.002037   -0.000000  -0.000007  -0.000007
   2 C      -2.228309  -1.169931   0.000226   -0.000068   0.000020  -0.000010
   3 N      -2.253656   1.345228  -0.000829   -0.000042  -0.000037   0.000002
   4 C       0.000410   2.457105  -0.000483    0.000001   0.000007   0.000007
   5 N       2.254116   1.344501  -0.000875    0.000042  -0.000036  -0.000004
   6 C       2.227959  -1.170649   0.000321    0.000069   0.000020  -0.000011
   7 H      -0.000736  -4.602092   0.005027   -0.000000   0.000033   0.000041
   8 H      -4.062132  -2.100467  -0.000518    0.000012   0.000007  -0.000018
   9 H       0.000741   4.512605   0.000087   -0.000000  -0.000013   0.000015
  10 H       4.061484  -2.101769  -0.000188   -0.000012   0.000007  -0.000014

                 ----------------------------------------
                 |  Time  |  1-e(secs)   |  2-e(secs)   |
                 ----------------------------------------
                 |  CPU   |       0.02   |       3.41   |
                 ----------------------------------------
                 |  WALL  |       0.02   |       3.41   |
                 ----------------------------------------

  Step       Energy      Delta E   Gmax     Grms     Xrms     Xmax   Walltime
  ---- ---------------- -------- -------- -------- -------- -------- --------
@    4    -264.07133252 -8.6D-07  0.00007  0.00003  0.00034  0.00098     93.8
                                     ok       ok       ok       ok  


      ----------------------
      Optimization converged
      ----------------------


  Step       Energy      Delta E   Gmax     Grms     Xrms     Xmax   Walltime
  ---- ---------------- -------- -------- -------- -------- -------- --------
@    4    -264.07133252 -8.6D-07  0.00007  0.00003  0.00034  0.00098     93.8
                                     ok       ok       ok       ok  



                         Geometry "geometry" -> "geometry"
                         ---------------------------------

 Output coordinates in angstroms (scale by  1.889725989 to convert to a.u.)

  No.       Tag          Charge          X              Y              Z
 ---- ---------------- ---------- -------------- -------------- --------------
    1 C                    6.0000    -0.00021102    -1.35103272     0.00107781
    2 C                    6.0000    -1.17917034    -0.61910100     0.00011970
    3 N                    7.0000    -1.19258333     0.71186389    -0.00043864
    4 C                    6.0000     0.00021697     1.30024413    -0.00025561
    5 N                    7.0000     1.19282685     0.71147951    -0.00046303
    6 C                    6.0000     1.17898519    -0.61948103     0.00016997
    7 H                    1.0000    -0.00038970    -2.43532258     0.00266024
    8 H                    1.0000    -2.14958769    -1.11151930    -0.00027432
    9 H                    1.0000     0.00039214     2.38796804     0.00004610
   10 H                    1.0000     2.14924473    -1.11220846    -0.00009935

      Atomic Mass 
      ----------- 

      C                 12.000000
      N                 14.003070
      H                  1.007825


 Effective nuclear repulsion energy (a.u.)     209.6450538768

            Nuclear Dipole moment (a.u.) 
            ----------------------------
        X                 Y               Z
 ---------------- ---------------- ----------------
     0.0005460460    -0.0829632271     0.0050874191

 ==============================================================================
                                internuclear distances
 ------------------------------------------------------------------------------
       center one      |      center two      | atomic units |  angstroms
 ------------------------------------------------------------------------------
    2 C                |   1 C                |     2.62234  |     1.38769
    3 N                |   2 C                |     2.51529  |     1.33103
    4 C                |   3 N                |     2.51338  |     1.33002
    5 N                |   4 C                |     2.51338  |     1.33002
    6 C                |   1 C                |     2.62235  |     1.38769
    6 C                |   5 N                |     2.51529  |     1.33103
    7 H                |   1 C                |     2.04901  |     1.08429
    8 H                |   2 C                |     2.05641  |     1.08820
    9 H                |   4 C                |     2.05550  |     1.08772
   10 H                |   6 C                |     2.05640  |     1.08820
 ------------------------------------------------------------------------------
                         number of included internuclear distances:         10
 ==============================================================================



 ==============================================================================
                                 internuclear angles
 ------------------------------------------------------------------------------
        center 1       |       center 2       |       center 3       |  degrees
 ------------------------------------------------------------------------------
    2 C                |   1 C                |   6 C                |   116.35
    2 C                |   1 C                |   7 H                |   121.82
    6 C                |   1 C                |   7 H                |   121.82
    1 C                |   2 C                |   3 N                |   122.41
    1 C                |   2 C                |   8 H                |   121.26
    3 N                |   2 C                |   8 H                |   116.33
    2 C                |   3 N                |   4 C                |   115.68
    3 N                |   4 C                |   5 N                |   127.47
    3 N                |   4 C                |   9 H                |   116.27
    5 N                |   4 C                |   9 H                |   116.27
    4 C                |   5 N                |   6 C                |   115.68
    1 C                |   6 C                |   5 N                |   122.41
    1 C                |   6 C                |  10 H                |   121.26
    5 N                |   6 C                |  10 H                |   116.33
 ------------------------------------------------------------------------------
                            number of included internuclear angles:         14
 ==============================================================================




 Task  times  cpu:       93.7s     wall:       93.7s
 Summary of allocated global arrays
-----------------------------------
  No active global arrays


MA_summarize_allocated_blocks: starting scan ...
MA_summarize_allocated_blocks: scan completed: 0 heap blocks, 0 stack blocks
MA usage statistics:

	allocation statistics:
					      heap	     stack
					      ----	     -----
	current number of blocks	         0	         0
	maximum number of blocks	        23	        58
	current total bytes		         0	         0
	maximum total bytes		 535852368	  33787560
	maximum total K-bytes		    535853	     33788
	maximum total M-bytes		       536	        34


                                NWChem Input Module
                                -------------------




                                     CITATION
                                     --------
                Please cite the following reference when publishing
                           results obtained with NWChem:

          E. Apra, E. J. Bylaska, W. A. de Jong, N. Govind, K. Kowalski,
       T. P. Straatsma, M. Valiev, H. J. J. van Dam, Y. Alexeev, J. Anchell,
       V. Anisimov, F. W. Aquino, R. Atta-Fynn, J. Autschbach, N. P. Bauman,
     J. C. Becca, D. E. Bernholdt, K. Bhaskaran-Nair, S. Bogatko, P. Borowski,
         J. Boschen, J. Brabec, A. Bruner, E. Cauet, Y. Chen, G. N. Chuev,
      C. J. Cramer, J. Daily, M. J. O. Deegan, T. H. Dunning Jr., M. Dupuis,
   K. G. Dyall, G. I. Fann, S. A. Fischer, A. Fonari, H. Fruchtl, L. Gagliardi,
      J. Garza, N. Gawande, S. Ghosh, K. Glaesemann, A. W. Gotz, J. Hammond,
       V. Helms, E. D. Hermes, K. Hirao, S. Hirata, M. Jacquelin, L. Jensen,
   B. G. Johnson, H. Jonsson, R. A. Kendall, M. Klemm, R. Kobayashi, V. Konkov,
      S. Krishnamoorthy, M. Krishnan, Z. Lin, R. D. Lins, R. J. Littlefield,
      A. J. Logsdail, K. Lopata, W. Ma, A. V. Marenich, J. Martin del Campo,
   D. Mejia-Rodriguez, J. E. Moore, J. M. Mullin, T. Nakajima, D. R. Nascimento,
    J. A. Nichols, P. J. Nichols, J. Nieplocha, A. Otero-de-la-Roza, B. Palmer,
    A. Panyala, T. Pirojsirikul, B. Peng, R. Peverati, J. Pittner, L. Pollack,
   R. M. Richard, P. Sadayappan, G. C. Schatz, W. A. Shelton, D. W. Silverstein,
   D. M. A. Smith, T. A. Soares, D. Song, M. Swart, H. L. Taylor, G. S. Thomas,
            V. Tipparaju, D. G. Truhlar, K. Tsemekhman, T. Van Voorhis,
      A. Vazquez-Mayagoitia, P. Verma, O. Villa, A. Vishnu, K. D. Vogiatzis,
        D. Wang, J. H. Weare, M. J. Williamson, T. L. Windus, K. Wolinski,
        A. T. Wong, Q. Wu, C. Yang, Q. Yu, M. Zacharias, Z. Zhang, Y. Zhao,
                                and R. J. Harrison
                        "NWChem: Past, present, and future
                         J. Chem. Phys. 152, 184102 (2020)
                               doi:10.1063/5.0004997

                                      AUTHORS
                                      -------
  E. Apra, E. J. Bylaska, N. Govind, K. Kowalski, M. Valiev, D. Mejia-Rodriguez,
       A. Kunitsa, N. P. Bauman, A. Panyala, W. A. de Jong, T. P. Straatsma,
   H. J. J. van Dam, D. Wang, T. L. Windus, J. Hammond, J. Autschbach, A. Woods,
    K. Bhaskaran-Nair, J. Brabec, K. Lopata, S. A. Fischer, S. Krishnamoorthy,
     M. Jacquelin, W. Ma, M. Klemm, O. Villa, Y. Chen, V. Anisimov, F. Aquino,
     S. Hirata, M. T. Hackler, E. Hermes, L. Jensen, J. E. Moore, J. C. Becca,
      V. Konjkov, T. Risthaus, M. Malagoli, A. Marenich, A. Otero-de-la-Roza,
        J. Mullin, P. Nichols, R. Peverati, J. Pittner, Y. Zhao, P.-D. Fan,
        A. Fonari, M. J. Williamson, R. J. Harrison, J. R. Rehr, M. Dupuis,
     D. Silverstein, D. M. A. Smith, J. Nieplocha, V. Tipparaju, M. Krishnan,
     B. E. Van Kuiken, A. Vazquez-Mayagoitia, M. Swart, Q. Wu, T. Van Voorhis,
     A. A. Auer, M. Nooijen, L. D. Crosby, E. Brown, G. Cisneros, G. I. Fann,
   H. Fruchtl, J. Garza, K. Hirao, R. A. Kendall, J. A. Nichols, K. Tsemekhman,
    K. Wolinski, J. Anchell, D. E. Bernholdt, P. Borowski, T. Clark, D. Clerc,
   H. Dachsel, M. J. O. Deegan, K. Dyall, D. Elwood, E. Glendening, M. Gutowski,
   A. C. Hess, J. Jaffe, B. G. Johnson, J. Ju, R. Kobayashi, R. Kutteh, Z. Lin,
   R. Littlefield, X. Long, B. Meng, T. Nakajima, S. Niu, L. Pollack, M. Rosing,
   K. Glaesemann, G. Sandrone, M. Stave, H. Taylor, G. Thomas, J. H. van Lenthe,
                               A. T. Wong, Z. Zhang.

 Total times  cpu:       93.8s     wall:       93.8s
