10
PBE0/6-311G* optimized
C     -0.00021102    -1.35103272     0.00107781
C     -1.17917034    -0.61910100     0.00011970
N     -1.19258333     0.71186389    -0.00043864
C      0.00021697     1.30024413    -0.00025561
N      1.19282685     0.71147951    -0.00046303
C      1.17898519    -0.61948103     0.00016997
H     -0.00038970    -2.43532258     0.00266024
H     -2.14958769    -1.11151930    -0.00027432
H      0.00039214     2.38796804     0.00004610
H      2.14924473    -1.11220846    -0.00009935
