10
CACTUS 3D  https://cactus.nci.nih.gov/chemical/structure/c1cncnc1/sdf?get3d=true
C     -0.00020000    -1.36330000    -0.00020000
C     -1.19060000    -0.65340000    -0.00010000
N     -1.15120000     0.66940000     0.00010000
C      0.00020000     1.31060000     0.00010000
N      1.15140000     0.66900000     0.00000000
C      1.19040000    -0.65380000    -0.00020000
H     -0.00040000    -2.44330000     0.00400000
H     -2.13750000    -1.17270000    -0.00050000
H      0.00040000     2.39060000    -0.00010000
H      2.13720000    -1.17340000    -0.00020000
