 argument  1 = tddft.nw



============================== echo of input deck ==============================
echo
start pyrimidine_td
title "pyrimidine LR-TDDFT, LC-wPBE mu=0.367478, 6-311G* Cartesian, PBE0 geometry"
scratch_dir /Users/bldrdge1/Downloads/repos/PlasMol/jobs/final/Step_1/pyrimidine
permanent_dir /Users/bldrdge1/Downloads/repos/PlasMol/jobs/final/Step_1/pyrimidine
memory total 2500 mb
charge 0

geometry units angstroms noautosym noautoz
  C     -0.00021102    -1.35103272     0.00107781
  C     -1.17917034    -0.61910100     0.00011970
  N     -1.19258333     0.71186389    -0.00043864
  C      0.00021697     1.30024413    -0.00025561
  N      1.19282685     0.71147951    -0.00046303
  C      1.17898519    -0.61948103     0.00016997
  H     -0.00038970    -2.43532258     0.00266024
  H     -2.14958769    -1.11151930    -0.00027432
  H      0.00039214     2.38796804     0.00004610
  H      2.14924473    -1.11220846    -0.00009935
end

basis cartesian
  * library 6-311G*
end

dft
  xc xwpbe 1.00 cpbe96 1.0 hfexch 1.00
  cam 0.367478 cam_alpha 0.00 cam_beta 1.00
  mult 1
  grid fine
  iterations 100
  convergence energy 1.0e-7
end

tddft
  nroots 30
  notriplet
end

task tddft energy
================================================================================


                                         
                                         


             Northwest Computational Chemistry Package (NWChem) 7.2.3
             --------------------------------------------------------


                    Environmental Molecular Sciences Laboratory
                       Pacific Northwest National Laboratory
                                Richland, WA 99352

                              Copyright (c) 1994-2022
                       Pacific Northwest National Laboratory
                            Battelle Memorial Institute

             NWChem is an open-source computational chemistry package
                        distributed under the terms of the
                      Educational Community License (ECL) 2.0
             A copy of the license is included with this distribution
                              in the LICENSE.TXT file

                                  ACKNOWLEDGMENT
                                  --------------

            This software and its documentation were developed at the
            EMSL at Pacific Northwest National Laboratory, a multiprogram
            national laboratory, operated for the U.S. Department of Energy
            by Battelle under Contract Number DE-AC05-76RL01830. Support
            for this work was provided by the Department of Energy Office
            of Biological and Environmental Research, Office of Basic
            Energy Sciences, and the Office of Advanced Scientific Computing.


           Job information
           ---------------

    hostname        = CAS-X1HWX6T0HY
    program         = /opt/homebrew/bin/nwchem
    date            = Thu Sep 24 10:30:55 2026

    compiled        = Thu_Dec_26_16:10:57_2024
    source          = /private/tmp/nwchem-20241226-24138-dbs3bh/nwchem-7.2.3
    nwchem branch   = 7.2.3
    nwchem revision = d690e065
    ga revision     = 5.8.0
    use scalapack   = T
    input           = tddft.nw
    prefix          = pyrimidine_td.
    data base       = /Users/bldrdge1/Downloads/repos/PlasMol/jobs/final/Step_1/pyrimidine/pyrimidine_td.db
    status          = startup
    nproc           =        1
    time left       =     -1s



           Memory information
           ------------------

    heap     =   81919996 doubles =    625.0 Mbytes
    stack    =   81920001 doubles =    625.0 Mbytes
    global   =  163840000 doubles =   1250.0 Mbytes (distinct from heap & stack)
    total    =  327679997 doubles =   2500.0 Mbytes
    verify   = yes
    hardfail = no 


           Directory information
           ---------------------

  0 permanent = /Users/bldrdge1/Downloads/repos/PlasMol/jobs/final/Step_1/pyrimidine
  0 scratch   = /Users/bldrdge1/Downloads/repos/PlasMol/jobs/final/Step_1/pyrimidine




                                NWChem Input Module
                                -------------------


    pyrimidine LR-TDDFT, LC-wPBE mu=0.367478, 6-311G* Cartesian, PBE0 geometry
    --------------------------------------------------------------------------

 Scaling coordinates for geometry "geometry" by  1.889725989
 (inverse scale =  0.529177249)



                             Geometry "geometry" -> ""
                             -------------------------

 Output coordinates in angstroms (scale by  1.889725989 to convert to a.u.)

  No.       Tag          Charge          X              Y              Z
 ---- ---------------- ---------- -------------- -------------- --------------
    1 C                    6.0000    -0.00021790    -1.34998743     0.00101371
    2 C                    6.0000    -1.17917722    -0.61805571     0.00005560
    3 N                    7.0000    -1.19259021     0.71290918    -0.00050274
    4 C                    6.0000     0.00021009     1.30128942    -0.00031971
    5 N                    7.0000     1.19281997     0.71252480    -0.00052713
    6 C                    6.0000     1.17897831    -0.61843574     0.00010587
    7 H                    1.0000    -0.00039658    -2.43427729     0.00259614
    8 H                    1.0000    -2.14959457    -1.11047401    -0.00033842
    9 H                    1.0000     0.00038526     2.38901333    -0.00001800
   10 H                    1.0000     2.14923785    -1.11116317    -0.00016345

      Atomic Mass 
      ----------- 

      C                 12.000000
      N                 14.003070
      H                  1.007825


 Effective nuclear repulsion energy (a.u.)     209.6450537671

            Nuclear Dipole moment (a.u.) 
            ----------------------------
        X                 Y               Z
 ---------------- ---------------- ----------------
    -0.0000000000    -0.0000000000    -0.0000000000


            XYZ format geometry
            -------------------
    10
 geometry
 C                    -0.00021790    -1.34998743     0.00101371
 C                    -1.17917722    -0.61805571     0.00005560
 N                    -1.19259021     0.71290918    -0.00050274
 C                     0.00021009     1.30128942    -0.00031971
 N                     1.19281997     0.71252480    -0.00052713
 C                     1.17897831    -0.61843574     0.00010587
 H                    -0.00039658    -2.43427729     0.00259614
 H                    -2.14959457    -1.11047401    -0.00033842
 H                     0.00038526     2.38901333    -0.00001800
 H                     2.14923785    -1.11116317    -0.00016345

 ==============================================================================
                                internuclear distances
 ------------------------------------------------------------------------------
       center one      |      center two      | atomic units |  angstroms
 ------------------------------------------------------------------------------
    2 C                |   1 C                |     2.62234  |     1.38769
    3 N                |   2 C                |     2.51529  |     1.33103
    4 C                |   3 N                |     2.51338  |     1.33002
    5 N                |   4 C                |     2.51338  |     1.33002
    6 C                |   1 C                |     2.62235  |     1.38769
    6 C                |   5 N                |     2.51529  |     1.33103
    7 H                |   1 C                |     2.04901  |     1.08429
    8 H                |   2 C                |     2.05641  |     1.08820
    9 H                |   4 C                |     2.05550  |     1.08772
   10 H                |   6 C                |     2.05640  |     1.08820
 ------------------------------------------------------------------------------
                         number of included internuclear distances:         10
 ==============================================================================



 ==============================================================================
                                 internuclear angles
 ------------------------------------------------------------------------------
        center 1       |       center 2       |       center 3       |  degrees
 ------------------------------------------------------------------------------
    2 C                |   1 C                |   6 C                |   116.35
    2 C                |   1 C                |   7 H                |   121.82
    6 C                |   1 C                |   7 H                |   121.82
    1 C                |   2 C                |   3 N                |   122.41
    1 C                |   2 C                |   8 H                |   121.26
    3 N                |   2 C                |   8 H                |   116.33
    2 C                |   3 N                |   4 C                |   115.68
    3 N                |   4 C                |   5 N                |   127.47
    3 N                |   4 C                |   9 H                |   116.27
    5 N                |   4 C                |   9 H                |   116.27
    4 C                |   5 N                |   6 C                |   115.68
    1 C                |   6 C                |   5 N                |   122.41
    1 C                |   6 C                |  10 H                |   121.26
    5 N                |   6 C                |  10 H                |   116.33
 ------------------------------------------------------------------------------
                            number of included internuclear angles:         14
 ==============================================================================



  library name resolved from: .nwchemrc
  library file name is: </opt/homebrew/Cellar/nwchem/7.2.3_1/share/nwchem/libraries/>
  


 Summary of "ao basis" -> "" (cartesian)
 ------------------------------------------------------------------------------
       Tag                 Description            Shells   Functions and Types
 ---------------- ------------------------------  ------  ---------------------
 *                          6-311G*                   on all atoms 


  pbe96 is a nonlocal functional; adding pw91lda local functional. 

                                 NWChem DFT Module
                                 -----------------


    pyrimidine LR-TDDFT, LC-wPBE mu=0.367478, 6-311G* Cartesian, PBE0 geometry


                      Basis "ao basis" -> "ao basis" (cartesian)
                      -----
  C (Carbon)
  ----------
            Exponent  Coefficients 
       -------------- ---------------------------------------------------------
  1 S  4.56324000E+03  0.001967
  1 S  6.82024000E+02  0.015231
  1 S  1.54973000E+02  0.076127
  1 S  4.44553000E+01  0.260801
  1 S  1.30290000E+01  0.616462
  1 S  1.82773000E+00  0.221006

  2 S  2.09642000E+01  0.114660
  2 S  4.80331000E+00  0.919999
  2 S  1.45933000E+00 -0.003031

  3 P  2.09642000E+01  0.040249
  3 P  4.80331000E+00  0.237594
  3 P  1.45933000E+00  0.815854

  4 S  4.83456000E-01  1.000000

  5 P  4.83456000E-01  1.000000

  6 S  1.45585000E-01  1.000000

  7 P  1.45585000E-01  1.000000

  8 D  6.26000000E-01  1.000000

  N (Nitrogen)
  ------------
            Exponent  Coefficients 
       -------------- ---------------------------------------------------------
  1 S  6.29348000E+03  0.001970
  1 S  9.49044000E+02  0.014961
  1 S  2.18776000E+02  0.073501
  1 S  6.36916000E+01  0.248937
  1 S  1.88282000E+01  0.602460
  1 S  2.72023000E+00  0.256202

  2 S  3.06331000E+01  0.111906
  2 S  7.02614000E+00  0.921666
  2 S  2.11205000E+00 -0.002569

  3 P  3.06331000E+01  0.038312
  3 P  7.02614000E+00  0.237403
  3 P  2.11205000E+00  0.817592

  4 S  6.84009000E-01  1.000000

  5 P  6.84009000E-01  1.000000

  6 S  2.00878000E-01  1.000000

  7 P  2.00878000E-01  1.000000

  8 D  9.13000000E-01  1.000000

  H (Hydrogen)
  ------------
            Exponent  Coefficients 
       -------------- ---------------------------------------------------------
  1 S  3.38650000E+01  0.025494
  1 S  5.09479000E+00  0.190373
  1 S  1.15879000E+00  0.852161

  2 S  3.25840000E-01  1.000000

  3 S  1.02741000E-01  1.000000



 Summary of "ao basis" -> "ao basis" (cartesian)
 ------------------------------------------------------------------------------
       Tag                 Description            Shells   Functions and Types
 ---------------- ------------------------------  ------  ---------------------
 C                          6-311G*                  8       19   4s3p1d
 N                          6-311G*                  8       19   4s3p1d
 H                          6-311G*                  3        3   3s




 Summary of "ao basis" -> "ao basis" (cartesian)
 ------------------------------------------------------------------------------
       Tag                 Description            Shells   Functions and Types
 ---------------- ------------------------------  ------  ---------------------
 C                          6-311G*                  8       19   4s3p1d
 N                          6-311G*                  8       19   4s3p1d
 H                          6-311G*                  3        3   3s


  int_init: cando_txs set to always be  F
  Caching 1-el integrals 

            General Information
            -------------------
          SCF calculation type: DFT
          Wavefunction type:  closed shell.
          No. of atoms     :    10
          No. of electrons :    42
           Alpha electrons :    21
            Beta electrons :    21
          Charge           :     0
          Spin multiplicity:     1
          Use of symmetry is: off; symmetry adaption is: off
          Maximum number of iterations: 100
          AO basis - number of functions:   126
                     number of shells:    60
          Convergence on energy requested:  1.00D-07
          Convergence on density requested:  1.00D-05
          Convergence on gradient requested:  5.00D-04

              XC Information
              --------------
                     Hartree-Fock (Exact) Exchange  1.000          
                     LC-wPBE(h)Exchange Functional  1.000          
            Perdew 1991 LDA Correlation Functional  1.000 local    
           PerdewBurkeErnz. Correlation Functional  1.000 non-local

           Range-Separation Parameters        
           ---------------------------
           Alpha           :  0.00
           Beta            :  1.00
           Gamma           :  0.37
           Short-Range HF  :     F

             Grid Information
             ----------------
          Grid used for XC integration:  fine      
          Radial quadrature: Mura-Knowles        
          Angular quadrature: Lebedev. 
          Tag              B.-S. Rad. Rad. Pts. Rad. Cut. Ang. Pts.
          ---              ---------- --------- --------- ---------
          C                   0.70       70          11.0       590
          N                   0.65       70          11.0       590
          H                   0.35       60          13.0       590
          Grid pruning is: on 
          Number of quadrature shells:   660
          Spatial weights used:  Erf1

          Convergence Information
          -----------------------
          Convergence aids based upon iterative change in 
          total energy or number of iterations. 
          Levelshifting, if invoked, occurs when the 
          HOMO/LUMO gap drops below (HL_TOL):  1.00D-02
          DIIS, if invoked, will attempt to extrapolate 
          using up to (NFOCK): 10 stored Fock matrices.

                    Damping( 0%)  Levelshifting(0.5)       DIIS
                  --------------- ------------------- ---------------
          dE  on:    start            ASAP                start   
          dE off:    2 iters        100 iters           100 iters 


      Screening Tolerance Information
      -------------------------------
          Density screening/tol_rho:  1.00D-10
          AO Gaussian exp screening on grid/accAOfunc:  16
          CD Gaussian exp screening on grid/accCDfunc:  20
          XC Gaussian exp screening on grid/accXCfunc:  20
          Schwarz screening/accCoul:  1.00D-08

  
  CAM type calculations without CDFIT are
  only available with the direct option.
  Forcing Direct SCF
  

      Superposition of Atomic Density Guess
      -------------------------------------

 Sum of atomic energies:        -261.28680843

      Non-variational initial energy
      ------------------------------

 Total energy =    -265.204475
 1-e energy   =    -767.201370
 2-e energy   =     292.351842
 HOMO         =      -0.291934
 LUMO         =      -0.038804

  WARNING: movecs_in_org=atomic not equal to movecs_in=/Users/bldrdge1/Downloads/repos/PlasMol/jobs/final/Step_1/pyrimidine/pyrimidine_td.movecs
   Time after variat. SCF:      0.6
   Time prior to 1st pass:      0.6

 Grid_pts file          = /Users/bldrdge1/Downloads/repos/PlasMol/jobs/final/Step_1/pyrimidine/pyrimidine_td.gridpts.0
 Record size in doubles =  12289        No. of grid_pts per rec  =   3070
 Max. records in memory =    141        Max. recs in file   =    833115


           Memory utilization after 1st SCF pass: 
           Heap Space remaining (MW):       80.19            80185980
          Stack Space remaining (MW):       81.92            81919076

   convergence    iter        energy       DeltaE   RMS-Dens  Diis-err    time
 ---------------- ----- ----------------- --------- --------- ---------  ------
 d= 0,ls=0.0,diis     1   -264.0598542829 -4.74D+02  5.11D-03  1.33D+00     7.1
 d= 0,ls=0.0,diis     2   -264.1276581389 -6.78D-02  2.68D-03  3.37D-01    13.4
 d= 0,ls=0.0,diis     3   -264.1514281491 -2.38D-02  1.01D-03  8.10D-02    19.8
 d= 0,ls=0.0,diis     4   -264.1589958466 -7.57D-03  2.51D-04  1.72D-03    26.4
 d= 0,ls=0.0,diis     5   -264.1591952521 -1.99D-04  1.22D-04  2.12D-04    32.9
  Resetting Diis
 d= 0,ls=0.0,diis     6   -264.1592295088 -3.43D-05  4.46D-05  2.98D-05    39.4
 d= 0,ls=0.0,diis     7   -264.1592349595 -5.45D-06  1.46D-05  3.97D-06    46.0
 d= 0,ls=0.0,diis     8   -264.1592356033 -6.44D-07  6.01D-06  1.83D-06    52.4
 d= 0,ls=0.0,diis     9   -264.1592358712 -2.68D-07  5.76D-06  2.76D-07    58.9
 d= 0,ls=0.0,diis    10   -264.1592359620 -9.08D-08  9.60D-07  1.94D-08    65.4


         Total DFT energy =     -264.159235961994
      One electron energy =     -771.198168047918
           Coulomb energy =      334.190830134518
    Exchange-Corr. energy =      -36.796951815644
 Nuclear repulsion energy =      209.645053767050

 Numeric. integr. density =       42.000001976228

     Total iterative time =     64.8s



                       DFT Final Molecular Orbital Analysis
                       ------------------------------------

 Vector    1  Occ=2.000000D+00  E=-1.419620D+01
              MO Center= -3.7D-04,  7.1D-01, -5.1D-04, r^2= 1.4D+00
   Bfn.  Coefficient  Atom+Function         Bfn.  Coefficient  Atom+Function  
  ----- ------------  ---------------      ----- ------------  ---------------
    39      0.395027   3 N  s                77     -0.394865   5 N  s         
    40      0.325846   3 N  s                78     -0.325712   5 N  s         

 Vector    2  Occ=2.000000D+00  E=-1.419618D+01
              MO Center=  6.0D-04,  7.1D-01, -5.1D-04, r^2= 1.4D+00
   Bfn.  Coefficient  Atom+Function         Bfn.  Coefficient  Atom+Function  
  ----- ------------  ---------------      ----- ------------  ---------------
    39      0.394862   3 N  s                77      0.395024   5 N  s         
    40      0.325738   3 N  s                78      0.325872   5 N  s         

 Vector    3  Occ=2.000000D+00  E=-1.016375D+01
              MO Center=  2.1D-04,  1.3D+00, -3.2D-04, r^2= 2.8D-02
   Bfn.  Coefficient  Atom+Function         Bfn.  Coefficient  Atom+Function  
  ----- ------------  ---------------      ----- ------------  ---------------
    58      0.564271   4 C  s                59      0.457805   4 C  s         
    63      0.025278   4 C  s         

 Vector    4  Occ=2.000000D+00  E=-1.015340D+01
              MO Center=  2.9D-02, -6.2D-01,  8.1D-05, r^2= 1.4D+00
   Bfn.  Coefficient  Atom+Function         Bfn.  Coefficient  Atom+Function  
  ----- ------------  ---------------      ----- ------------  ---------------
    96      0.403931   6 C  s                20      0.393972   2 C  s         
    97      0.327676   6 C  s                21      0.319596   2 C  s         

 Vector    5  Occ=2.000000D+00  E=-1.015340D+01
              MO Center= -3.0D-02, -6.2D-01,  8.0D-05, r^2= 1.4D+00
   Bfn.  Coefficient  Atom+Function         Bfn.  Coefficient  Atom+Function  
  ----- ------------  ---------------      ----- ------------  ---------------
    20      0.403934   2 C  s                96     -0.393975   6 C  s         
    21      0.327747   2 C  s                97     -0.319668   6 C  s         

 Vector    6  Occ=2.000000D+00  E=-1.011866D+01
              MO Center= -2.2D-04, -1.3D+00,  1.0D-03, r^2= 2.8D-02
   Bfn.  Coefficient  Atom+Function         Bfn.  Coefficient  Atom+Function  
  ----- ------------  ---------------      ----- ------------  ---------------
     1      0.564208   1 C  s                 2      0.457648   1 C  s         
     6      0.025213   1 C  s         

 Vector    7  Occ=2.000000D+00  E=-1.129451D+00
              MO Center=  6.8D-05,  4.1D-01, -2.5D-04, r^2= 1.6D+00
   Bfn.  Coefficient  Atom+Function         Bfn.  Coefficient  Atom+Function  
  ----- ------------  ---------------      ----- ------------  ---------------
    44      0.257253   3 N  s                82      0.257253   5 N  s         
    63      0.236462   4 C  s                48      0.191289   3 N  s         
    86      0.191289   5 N  s                25      0.157676   2 C  s         
   101      0.157676   6 C  s                40     -0.096907   3 N  s         
    78     -0.096907   5 N  s                 6      0.096424   1 C  s         

 Vector    8  Occ=2.000000D+00  E=-1.026410D+00
              MO Center=  5.6D-05,  3.5D-01, -2.8D-04, r^2= 2.0D+00
   Bfn.  Coefficient  Atom+Function         Bfn.  Coefficient  Atom+Function  
  ----- ------------  ---------------      ----- ------------  ---------------
    44      0.312953   3 N  s                82     -0.312953   5 N  s         
    48      0.213312   3 N  s                86     -0.213312   5 N  s         
    25      0.192038   2 C  s               101     -0.192037   6 C  s         
    40     -0.114773   3 N  s                78      0.114773   5 N  s         
    64     -0.113569   4 C  px               29      0.081674   2 C  s         

 Vector    9  Occ=2.000000D+00  E=-9.357601D-01
              MO Center= -7.9D-05, -4.8D-01,  3.5D-04, r^2= 2.3D+00
   Bfn.  Coefficient  Atom+Function         Bfn.  Coefficient  Atom+Function  
  ----- ------------  ---------------      ----- ------------  ---------------
     6      0.329612   1 C  s                63     -0.232932   4 C  s         
    25      0.203323   2 C  s               101      0.203324   6 C  s         
    10      0.152826   1 C  s                 2     -0.126437   1 C  s         
    67     -0.118182   4 C  s                29      0.107754   2 C  s         
   105      0.107754   6 C  s                44     -0.101033   3 N  s         

 Vector   10  Occ=2.000000D+00  E=-7.916690D-01
              MO Center=  1.4D-04, -2.5D-01,  1.4D-06, r^2= 3.0D+00
   Bfn.  Coefficient  Atom+Function         Bfn.  Coefficient  Atom+Function  
  ----- ------------  ---------------      ----- ------------  ---------------
    25      0.265881   2 C  s               101     -0.265930   6 C  s         
    29      0.168273   2 C  s               105     -0.168314   6 C  s         
    64      0.157497   4 C  px               44     -0.145395   3 N  s         
    82      0.145348   5 N  s                 7     -0.133230   1 C  px        
    48     -0.118141   3 N  s                86      0.118105   5 N  s         

 Vector   11  Occ=2.000000D+00  E=-7.907438D-01
              MO Center= -1.6D-04,  8.7D-02,  8.6D-05, r^2= 3.1D+00
   Bfn.  Coefficient  Atom+Function         Bfn.  Coefficient  Atom+Function  
  ----- ------------  ---------------      ----- ------------  ---------------
    63      0.275235   4 C  s                 6      0.242595   1 C  s         
    10      0.198286   1 C  s                67      0.172480   4 C  s         
    46      0.123243   3 N  py               84      0.123224   5 N  py        
    27     -0.108882   2 C  py              103     -0.108883   6 C  py        
    25     -0.102584   2 C  s               101     -0.102459   6 C  s         

 Vector   12  Occ=2.000000D+00  E=-6.732232D-01
              MO Center= -2.0D-05, -1.3D-01,  1.4D-06, r^2= 3.9D+00
   Bfn.  Coefficient  Atom+Function         Bfn.  Coefficient  Atom+Function  
  ----- ------------  ---------------      ----- ------------  ---------------
    26      0.166088   2 C  px              102     -0.166070   6 C  px        
    65     -0.158848   4 C  py                8      0.118947   1 C  py        
    29     -0.116788   2 C  s               105     -0.116788   6 C  s         
    22      0.104400   2 C  px               98     -0.104389   6 C  px        
   119     -0.102245   8 H  s               125     -0.102245  10 H  s         

 Vector   13  Occ=2.000000D+00  E=-6.403776D-01
              MO Center= -1.2D-05, -9.4D-02,  1.6D-05, r^2= 2.5D+00
   Bfn.  Coefficient  Atom+Function         Bfn.  Coefficient  Atom+Function  
  ----- ------------  ---------------      ----- ------------  ---------------
     7      0.182811   1 C  px               27      0.178645   2 C  py        
   103     -0.178627   6 C  py               64      0.174866   4 C  px        
    46     -0.165723   3 N  py               84      0.165755   5 N  py        
    60      0.123608   4 C  px                3      0.122734   1 C  px        
    23      0.123116   2 C  py               99     -0.123103   6 C  py        

 Vector   14  Occ=2.000000D+00  E=-5.932940D-01
              MO Center= -1.5D-04, -9.0D-01,  1.1D-03, r^2= 3.6D+00
   Bfn.  Coefficient  Atom+Function         Bfn.  Coefficient  Atom+Function  
  ----- ------------  ---------------      ----- ------------  ---------------
     8      0.263731   1 C  py              116     -0.190707   7 H  s         
    12      0.175577   1 C  py                4      0.169400   1 C  py        
   115     -0.160881   7 H  s                65      0.143379   4 C  py        
    25      0.123679   2 C  s               101      0.123678   6 C  s         
    44     -0.120903   3 N  s                82     -0.120903   5 N  s         

 Vector   15  Occ=2.000000D+00  E=-5.657970D-01
              MO Center=  3.9D-05,  2.4D-01, -1.1D-04, r^2= 2.4D+00
   Bfn.  Coefficient  Atom+Function         Bfn.  Coefficient  Atom+Function  
  ----- ------------  ---------------      ----- ------------  ---------------
    47      0.185996   3 N  pz               85      0.185996   5 N  pz        
    66      0.183693   4 C  pz               28      0.149528   2 C  pz        
   104      0.149528   6 C  pz               51      0.129973   3 N  pz        
    89      0.129973   5 N  pz                9      0.125469   1 C  pz        
    70      0.121049   4 C  pz               43      0.119224   3 N  pz        

 Vector   16  Occ=2.000000D+00  E=-5.413301D-01
              MO Center= -8.7D-05, -5.6D-01, -3.0D-05, r^2= 3.3D+00
   Bfn.  Coefficient  Atom+Function         Bfn.  Coefficient  Atom+Function  
  ----- ------------  ---------------      ----- ------------  ---------------
    26      0.222882   2 C  px              102      0.222862   6 C  px        
     7     -0.162490   1 C  px               22      0.145358   2 C  px        
    98      0.145346   6 C  px               30      0.139537   2 C  px        
   106      0.139520   6 C  px              119     -0.135927   8 H  s         
   125      0.135927  10 H  s                 3     -0.112905   1 C  px        

 Vector   17  Occ=2.000000D+00  E=-5.309771D-01
              MO Center=  4.8D-05,  3.2D-01, -2.6D-04, r^2= 3.8D+00
   Bfn.  Coefficient  Atom+Function         Bfn.  Coefficient  Atom+Function  
  ----- ------------  ---------------      ----- ------------  ---------------
    65      0.239547   4 C  py               69      0.153665   4 C  py        
    61      0.152102   4 C  py               45     -0.137802   3 N  px        
    83      0.137782   5 N  px              122      0.126611   9 H  s         
    10      0.122023   1 C  s               119     -0.119560   8 H  s         
   125     -0.119560  10 H  s                27      0.114040   2 C  py        

 Vector   18  Occ=2.000000D+00  E=-4.327181D-01
              MO Center=  3.1D-05,  2.0D-01, -2.3D-04, r^2= 2.6D+00
   Bfn.  Coefficient  Atom+Function         Bfn.  Coefficient  Atom+Function  
  ----- ------------  ---------------      ----- ------------  ---------------
    47      0.235527   3 N  pz               85     -0.235527   5 N  pz        
    51      0.209737   3 N  pz               89     -0.209738   5 N  pz        
    28      0.191885   2 C  pz              104     -0.191884   6 C  pz        
    32      0.161101   2 C  pz              108     -0.161101   6 C  pz        
    43      0.154058   3 N  pz               81     -0.154059   5 N  pz        

 Vector   19  Occ=2.000000D+00  E=-4.178250D-01
              MO Center=  1.1D-04,  7.0D-01, -2.4D-04, r^2= 3.2D+00
   Bfn.  Coefficient  Atom+Function         Bfn.  Coefficient  Atom+Function  
  ----- ------------  ---------------      ----- ------------  ---------------
    48      0.223503   3 N  s                86      0.223503   5 N  s         
    50      0.186801   3 N  py               88      0.186754   5 N  py        
    46      0.180644   3 N  py               84      0.180603   5 N  py        
    44      0.174557   3 N  s                82      0.174557   5 N  s         
    49     -0.145875   3 N  px               87      0.145936   5 N  px        

 Vector   20  Occ=2.000000D+00  E=-3.985607D-01
              MO Center= -4.8D-05, -3.0D-01,  3.1D-04, r^2= 2.7D+00
   Bfn.  Coefficient  Atom+Function         Bfn.  Coefficient  Atom+Function  
  ----- ------------  ---------------      ----- ------------  ---------------
     9      0.269119   1 C  pz               13      0.252503   1 C  pz        
    66     -0.220670   4 C  pz               70     -0.189609   4 C  pz        
     5      0.167537   1 C  pz               28      0.145093   2 C  pz        
   104      0.145094   6 C  pz               62     -0.135946   4 C  pz        
    47     -0.113676   3 N  pz               85     -0.113675   5 N  pz        

 Vector   21  Occ=2.000000D+00  E=-3.672102D-01
              MO Center=  8.1D-05,  5.1D-01, -5.4D-04, r^2= 3.2D+00
   Bfn.  Coefficient  Atom+Function         Bfn.  Coefficient  Atom+Function  
  ----- ------------  ---------------      ----- ------------  ---------------
    49      0.267712   3 N  px               87      0.267745   5 N  px        
    45      0.246791   3 N  px               83      0.246821   5 N  px        
    11      0.188511   1 C  px               41      0.173062   3 N  px        
    79      0.173082   5 N  px               64     -0.137168   4 C  px        
     7      0.117689   1 C  px               44     -0.115265   3 N  s         

 Vector   22  Occ=0.000000D+00  E= 3.526252D-02
              MO Center= -2.3D-05, -1.6D-01, -6.1D-05, r^2= 3.1D+00
   Bfn.  Coefficient  Atom+Function         Bfn.  Coefficient  Atom+Function  
  ----- ------------  ---------------      ----- ------------  ---------------
    32      0.431342   2 C  pz              108     -0.431347   6 C  pz        
    51     -0.356723   3 N  pz               89      0.356720   5 N  pz        
    28      0.245094   2 C  pz              104     -0.245097   6 C  pz        
    47     -0.195334   3 N  pz               85      0.195332   5 N  pz        
    24      0.158387   2 C  pz              100     -0.158389   6 C  pz        

 Vector   23  Occ=0.000000D+00  E= 4.798053D-02
              MO Center=  1.2D-05,  9.0D-02,  1.0D-04, r^2= 3.2D+00
   Bfn.  Coefficient  Atom+Function         Bfn.  Coefficient  Atom+Function  
  ----- ------------  ---------------      ----- ------------  ---------------
    13      0.529285   1 C  pz               70      0.471599   4 C  pz        
    32     -0.296383   2 C  pz              108     -0.296375   6 C  pz        
    66      0.290518   4 C  pz                9      0.227237   1 C  pz        
    51     -0.197637   3 N  pz               89     -0.197643   5 N  pz        
    62      0.181987   4 C  pz                5      0.157614   1 C  pz        

 Vector   24  Occ=0.000000D+00  E= 1.306733D-01
              MO Center= -3.4D-04, -2.0D+00,  1.4D-03, r^2= 6.8D+00
   Bfn.  Coefficient  Atom+Function         Bfn.  Coefficient  Atom+Function  
  ----- ------------  ---------------      ----- ------------  ---------------
   117      1.338742   7 H  s                10     -0.911818   1 C  s         
   120      0.909674   8 H  s               126      0.909664  10 H  s         
    29     -0.704403   2 C  s               105     -0.704395   6 C  s         
    12      0.596289   1 C  py               30      0.302645   2 C  px        
   106     -0.302598   6 C  px              123      0.267047   9 H  s         

 Vector   25  Occ=0.000000D+00  E= 1.679749D-01
              MO Center= -1.9D-04, -1.4D+00, -4.3D-04, r^2= 9.7D+00
   Bfn.  Coefficient  Atom+Function         Bfn.  Coefficient  Atom+Function  
  ----- ------------  ---------------      ----- ------------  ---------------
   120      1.612431   8 H  s               126     -1.612451  10 H  s         
    29     -1.117452   2 C  s               105      1.117454   6 C  s         
    30      0.750971   2 C  px              106      0.750868   6 C  px        
    31      0.360398   2 C  py              107     -0.360643   6 C  py        
    11     -0.258730   1 C  px               25     -0.109309   2 C  s         

 Vector   26  Occ=0.000000D+00  E= 1.761402D-01
              MO Center=  3.6D-04,  2.3D+00,  5.6D-04, r^2= 6.2D+00
   Bfn.  Coefficient  Atom+Function         Bfn.  Coefficient  Atom+Function  
  ----- ------------  ---------------      ----- ------------  ---------------
   123      2.098428   9 H  s                67     -1.142579   4 C  s         
    69     -1.094275   4 C  py              117     -0.819110   7 H  s         
    12     -0.531566   1 C  py               10      0.337725   1 C  s         
    48     -0.290601   3 N  s                86     -0.290602   5 N  s         
   120      0.154797   8 H  s               126      0.154772  10 H  s         

 Vector   27  Occ=0.000000D+00  E= 1.945390D-01
              MO Center= -2.7D-04, -1.6D+00,  1.2D-03, r^2= 9.6D+00
   Bfn.  Coefficient  Atom+Function         Bfn.  Coefficient  Atom+Function  
  ----- ------------  ---------------      ----- ------------  ---------------
   117      1.847867   7 H  s                12      1.432775   1 C  py        
   120     -1.322576   8 H  s               126     -1.322563  10 H  s         
    30     -0.830139   2 C  px              106      0.829932   6 C  px        
   123      0.749856   9 H  s                31     -0.638786   2 C  py        
   107     -0.639042   6 C  py               67     -0.464559   4 C  s         

 Vector   28  Occ=0.000000D+00  E= 2.291162D-01
              MO Center= -2.9D-06, -1.4D-02, -1.8D-04, r^2= 3.5D+00
   Bfn.  Coefficient  Atom+Function         Bfn.  Coefficient  Atom+Function  
  ----- ------------  ---------------      ----- ------------  ---------------
    13      0.646056   1 C  pz               32     -0.578150   2 C  pz        
   108     -0.578149   6 C  pz               70     -0.526048   4 C  pz        
    51      0.495096   3 N  pz               89      0.495095   5 N  pz        
    47      0.212335   3 N  pz               85      0.212335   5 N  pz        
     9      0.199329   1 C  pz               66     -0.186847   4 C  pz        

 Vector   29  Occ=0.000000D+00  E= 2.986119D-01
              MO Center=  1.2D-05, -8.7D-02,  2.0D-04, r^2= 4.9D+00
   Bfn.  Coefficient  Atom+Function         Bfn.  Coefficient  Atom+Function  
  ----- ------------  ---------------      ----- ------------  ---------------
    48      2.296066   3 N  s                86      2.296145   5 N  s         
    67     -1.924491   4 C  s                10     -1.373276   1 C  s         
    31     -1.158362   2 C  py              107     -1.158210   6 C  py        
    69      1.044661   4 C  py               29     -0.893243   2 C  s         
   105     -0.893317   6 C  s                30      0.572333   2 C  px        

 Vector   30  Occ=0.000000D+00  E= 3.027757D-01
              MO Center= -5.5D-05, -2.0D-01,  2.6D-04, r^2= 5.1D+00
   Bfn.  Coefficient  Atom+Function         Bfn.  Coefficient  Atom+Function  
  ----- ------------  ---------------      ----- ------------  ---------------
    48     -2.021827   3 N  s                86      2.021728   5 N  s         
    29      1.887240   2 C  s               105     -1.887173   6 C  s         
    11      1.144152   1 C  px               68     -1.111744   4 C  px        
    31      0.752353   2 C  py              107     -0.752521   6 C  py        
    30      0.675302   2 C  px              106      0.675064   6 C  px        

 Vector   31  Occ=0.000000D+00  E= 3.653497D-01
              MO Center= -1.4D-04, -9.6D-01, -1.9D-04, r^2= 4.4D+00
   Bfn.  Coefficient  Atom+Function         Bfn.  Coefficient  Atom+Function  
  ----- ------------  ---------------      ----- ------------  ---------------
    10      3.031369   1 C  s                29     -2.069502   2 C  s         
   105     -2.069510   6 C  s                12      1.934620   1 C  py        
    67     -1.922125   4 C  s                30     -1.300300   2 C  px        
   106      1.300415   6 C  px               48      1.052972   3 N  s         
    86      1.053030   5 N  s               116      0.821408   7 H  s         

 Vector   32  Occ=0.000000D+00  E= 3.936559D-01
              MO Center=  4.6D-05,  3.4D-01,  4.8D-04, r^2= 5.7D+00
   Bfn.  Coefficient  Atom+Function         Bfn.  Coefficient  Atom+Function  
  ----- ------------  ---------------      ----- ------------  ---------------
    68      2.542785   4 C  px               11      1.630171   1 C  px        
    29      1.576961   2 C  s               105     -1.577028   6 C  s         
    48      1.459577   3 N  s                86     -1.459559   5 N  s         
    50      0.762965   3 N  py               88     -0.763130   5 N  py        
    49      0.511096   3 N  px               87      0.510834   5 N  px        

 Vector   33  Occ=0.000000D+00  E= 4.177219D-01
              MO Center= -6.1D-05, -3.3D-01,  4.0D-04, r^2= 4.4D+00
   Bfn.  Coefficient  Atom+Function         Bfn.  Coefficient  Atom+Function  
  ----- ------------  ---------------      ----- ------------  ---------------
    10      4.924804   1 C  s                29     -3.760479   2 C  s         
   105     -3.760445   6 C  s                12      2.899740   1 C  py        
    30     -2.079963   2 C  px              106      2.079801   6 C  px        
   117      1.343912   7 H  s                48      0.997985   3 N  s         
    86      0.997996   5 N  s                50     -0.739779   3 N  py        

 Vector   34  Occ=0.000000D+00  E= 4.328153D-01
              MO Center= -1.1D-05, -7.7D-02, -3.3D-04, r^2= 6.4D+00
   Bfn.  Coefficient  Atom+Function         Bfn.  Coefficient  Atom+Function  
  ----- ------------  ---------------      ----- ------------  ---------------
    11      2.765632   1 C  px               31     -2.409454   2 C  py        
   107      2.408978   6 C  py               68     -1.884116   4 C  px        
    30      1.476294   2 C  px              106      1.477087   6 C  px        
    50     -1.010321   3 N  py               88      1.010507   5 N  py        
    49     -0.600419   3 N  px               87     -0.600089   5 N  px        

 Vector   35  Occ=0.000000D+00  E= 4.449258D-01
              MO Center= -1.9D-05, -1.1D-01, -3.6D-04, r^2= 4.6D+00
   Bfn.  Coefficient  Atom+Function         Bfn.  Coefficient  Atom+Function  
  ----- ------------  ---------------      ----- ------------  ---------------
    67     -3.308383   4 C  s                10      3.148284   1 C  s         
    31      1.133392   2 C  py              107      1.133081   6 C  py        
    30     -1.001609   2 C  px              106      1.001981   6 C  px        
    49      0.850706   3 N  px               87     -0.850439   5 N  px        
    50      0.829148   3 N  py               88      0.829427   5 N  py        

 Vector   36  Occ=0.000000D+00  E= 4.743771D-01
              MO Center= -6.1D-05, -3.8D-01,  6.6D-04, r^2= 3.9D+00
   Bfn.  Coefficient  Atom+Function         Bfn.  Coefficient  Atom+Function  
  ----- ------------  ---------------      ----- ------------  ---------------
    32      0.519929   2 C  pz               70      0.520149   4 C  pz        
   108      0.519929   6 C  pz               28     -0.450872   2 C  pz        
   104     -0.450872   6 C  pz                9     -0.407465   1 C  pz        
    66     -0.407664   4 C  pz               13      0.348802   1 C  pz        
    24     -0.120427   2 C  pz              100     -0.120427   6 C  pz        

 Vector   37  Occ=0.000000D+00  E= 4.937863D-01
              MO Center= -1.4D-04, -8.6D-01,  8.3D-04, r^2= 4.1D+00
   Bfn.  Coefficient  Atom+Function         Bfn.  Coefficient  Atom+Function  
  ----- ------------  ---------------      ----- ------------  ---------------
    29      2.565042   2 C  s               105     -2.565015   6 C  s         
    11      1.210500   1 C  px               30      1.014417   2 C  px        
   106      1.014608   6 C  px               68      0.762762   4 C  px        
   119     -0.731141   8 H  s               125      0.731150  10 H  s         
    31     -0.699981   2 C  py              107      0.699636   6 C  py        

 Vector   38  Occ=0.000000D+00  E= 5.077270D-01
              MO Center=  2.0D-04,  1.3D+00,  3.7D-04, r^2= 4.0D+00
   Bfn.  Coefficient  Atom+Function         Bfn.  Coefficient  Atom+Function  
  ----- ------------  ---------------      ----- ------------  ---------------
   122      1.456431   9 H  s                29      1.399574   2 C  s         
   105      1.399559   6 C  s                10     -1.239180   1 C  s         
   123     -0.735123   9 H  s                12     -0.703600   1 C  py        
    30      0.607094   2 C  px              106     -0.607026   6 C  px        
    69     -0.526786   4 C  py               67     -0.408580   4 C  s         

 Vector   39  Occ=0.000000D+00  E= 5.283528D-01
              MO Center= -1.5D-04, -9.1D-01, -1.8D-04, r^2= 4.4D+00
   Bfn.  Coefficient  Atom+Function         Bfn.  Coefficient  Atom+Function  
  ----- ------------  ---------------      ----- ------------  ---------------
    10      1.373350   1 C  s                67      0.897281   4 C  s         
   119      0.710987   8 H  s               125      0.710981  10 H  s         
   116     -0.688169   7 H  s               120     -0.565172   8 H  s         
   126     -0.565164  10 H  s                29     -0.408643   2 C  s         
   105     -0.408587   6 C  s                25     -0.406397   2 C  s         

 Vector   40  Occ=0.000000D+00  E= 5.361880D-01
              MO Center=  8.8D-05,  5.6D-01,  1.6D-04, r^2= 4.4D+00
   Bfn.  Coefficient  Atom+Function         Bfn.  Coefficient  Atom+Function  
  ----- ------------  ---------------      ----- ------------  ---------------
    70      1.194481   4 C  pz               66     -0.727081   4 C  pz        
    13     -0.686770   1 C  pz                9      0.456490   1 C  pz        
    62     -0.181211   4 C  pz               28      0.121466   2 C  pz        
   104      0.121461   6 C  pz                5      0.108900   1 C  pz        
    51     -0.100706   3 N  pz               89     -0.100706   5 N  pz        

 Vector   41  Occ=0.000000D+00  E= 5.458326D-01
              MO Center= -1.1D-04, -7.0D-01, -3.0D-04, r^2= 4.4D+00
   Bfn.  Coefficient  Atom+Function         Bfn.  Coefficient  Atom+Function  
  ----- ------------  ---------------      ----- ------------  ---------------
    32      1.028938   2 C  pz              108     -1.028941   6 C  pz        
    28     -0.625299   2 C  pz              104      0.625301   6 C  pz        
    24     -0.155074   2 C  pz              100      0.155074   6 C  pz        
    16      0.079335   1 C  dxz              51     -0.078301   3 N  pz        
    89      0.078301   5 N  pz               35     -0.069658   2 C  dxz       

 Vector   42  Occ=0.000000D+00  E= 6.041500D-01
              MO Center=  7.5D-05,  4.8D-01, -4.9D-04, r^2= 4.0D+00
   Bfn.  Coefficient  Atom+Function         Bfn.  Coefficient  Atom+Function  
  ----- ------------  ---------------      ----- ------------  ---------------
    11      1.241000   1 C  px               31     -1.186017   2 C  py        
   107      1.185953   6 C  py               48      1.093637   3 N  s         
    86     -1.093633   5 N  s                68      0.927180   4 C  px        
    25      0.552254   2 C  s               101     -0.552256   6 C  s         
    64     -0.511784   4 C  px               29     -0.407288   2 C  s         

 Vector   43  Occ=0.000000D+00  E= 6.257002D-01
              MO Center= -1.4D-04, -8.7D-01,  2.0D-04, r^2= 4.5D+00
   Bfn.  Coefficient  Atom+Function         Bfn.  Coefficient  Atom+Function  
  ----- ------------  ---------------      ----- ------------  ---------------
    13      1.663653   1 C  pz               32     -1.115240   2 C  pz        
   108     -1.115239   6 C  pz                9     -0.665572   1 C  pz        
    70      0.517412   4 C  pz               28      0.421196   2 C  pz        
   104      0.421195   6 C  pz               66     -0.269861   4 C  pz        
     5     -0.179739   1 C  pz               24      0.115721   2 C  pz        

 Vector   44  Occ=0.000000D+00  E= 6.411256D-01
              MO Center= -1.5D-04, -9.5D-01,  3.1D-04, r^2= 5.1D+00
   Bfn.  Coefficient  Atom+Function         Bfn.  Coefficient  Atom+Function  
  ----- ------------  ---------------      ----- ------------  ---------------
    11      3.126867   1 C  px               30      1.642681   2 C  px        
   106      1.642999   6 C  px               68     -1.195801   4 C  px        
   120      1.126335   8 H  s               126     -1.126332  10 H  s         
    31     -1.079401   2 C  py              107      1.078912   6 C  py        
    29      0.905176   2 C  s               105     -0.905108   6 C  s         

 Vector   45  Occ=0.000000D+00  E= 6.510481D-01
              MO Center= -4.2D-05, -2.4D-01,  5.5D-04, r^2= 4.7D+00
   Bfn.  Coefficient  Atom+Function         Bfn.  Coefficient  Atom+Function  
  ----- ------------  ---------------      ----- ------------  ---------------
    67      1.562668   4 C  s                48     -1.177400   3 N  s         
    86     -1.177405   5 N  s                10      0.964215   1 C  s         
    31      0.960951   2 C  py              107      0.960618   6 C  py        
    30     -0.945930   2 C  px              106      0.946198   6 C  px        
   117      0.921047   7 H  s                63     -0.788389   4 C  s         

 Vector   46  Occ=0.000000D+00  E= 6.821799D-01
              MO Center=  6.4D-05,  3.6D-01,  4.1D-04, r^2= 7.3D+00
   Bfn.  Coefficient  Atom+Function         Bfn.  Coefficient  Atom+Function  
  ----- ------------  ---------------      ----- ------------  ---------------
    10      2.424776   1 C  s                69     -2.156267   4 C  py        
    30     -1.654281   2 C  px              106      1.654197   6 C  px        
   123      1.649853   9 H  s                67     -1.620102   4 C  s         
   120     -1.050346   8 H  s               126     -1.050357  10 H  s         
    65      0.596730   4 C  py               63      0.585841   4 C  s         

 Vector   47  Occ=0.000000D+00  E= 7.266430D-01
              MO Center= -1.5D-04, -9.5D-01,  1.2D-03, r^2= 5.0D+00
   Bfn.  Coefficient  Atom+Function         Bfn.  Coefficient  Atom+Function  
  ----- ------------  ---------------      ----- ------------  ---------------
    12      3.419526   1 C  py              117      1.904864   7 H  s         
    67     -1.530348   4 C  s                29     -1.357271   2 C  s         
   105     -1.357190   6 C  s                69     -1.198336   4 C  py        
    30     -0.970311   2 C  px              106      0.970060   6 C  px        
   123      0.953750   9 H  s                31     -0.886195   2 C  py        

 Vector   48  Occ=0.000000D+00  E= 7.364285D-01
              MO Center= -5.3D-05, -3.5D-01, -2.6D-04, r^2= 5.5D+00
   Bfn.  Coefficient  Atom+Function         Bfn.  Coefficient  Atom+Function  
  ----- ------------  ---------------      ----- ------------  ---------------
    29      3.284181   2 C  s               105     -3.284141   6 C  s         
    11      2.989359   1 C  px               31     -2.041275   2 C  py        
   107      2.041453   6 C  py              120     -1.012531   8 H  s         
   126      1.012530  10 H  s                25     -0.833257   2 C  s         
   101      0.833262   6 C  s                50     -0.620340   3 N  py        

 Vector   49  Occ=0.000000D+00  E= 7.776025D-01
              MO Center=  6.2D-05,  3.6D-01, -3.0D-04, r^2= 4.5D+00
   Bfn.  Coefficient  Atom+Function         Bfn.  Coefficient  Atom+Function  
  ----- ------------  ---------------      ----- ------------  ---------------
    69      0.932655   4 C  py              123     -0.933892   9 H  s         
    67      0.818849   4 C  s               120     -0.769937   8 H  s         
   126     -0.769944  10 H  s                10      0.755218   1 C  s         
    30     -0.679419   2 C  px              106      0.679303   6 C  px        
    65     -0.672632   4 C  py               29      0.635896   2 C  s         

 Vector   50  Occ=0.000000D+00  E= 7.801080D-01
              MO Center=  6.7D-05,  4.5D-01, -8.3D-05, r^2= 6.2D+00
   Bfn.  Coefficient  Atom+Function         Bfn.  Coefficient  Atom+Function  
  ----- ------------  ---------------      ----- ------------  ---------------
    12      1.869109   1 C  py               30     -1.761422   2 C  px        
   106      1.761063   6 C  px               67      1.344931   4 C  s         
    31     -1.131678   2 C  py              107     -1.132206   6 C  py        
    69      1.112912   4 C  py               50     -0.939469   3 N  py        
    88     -0.939159   5 N  py               49      0.930331   3 N  px        

 Vector   51  Occ=0.000000D+00  E= 7.864406D-01
              MO Center= -3.0D-05, -1.5D-01,  4.8D-05, r^2= 4.2D+00
   Bfn.  Coefficient  Atom+Function         Bfn.  Coefficient  Atom+Function  
  ----- ------------  ---------------      ----- ------------  ---------------
    29      1.922560   2 C  s               105     -1.922562   6 C  s         
    11      1.405327   1 C  px               49      0.915281   3 N  px        
    87      0.915201   5 N  px                7     -0.570322   1 C  px        
    30      0.545333   2 C  px              106      0.545343   6 C  px        
    25     -0.468360   2 C  s                64      0.469688   4 C  px        

 Vector   52  Occ=0.000000D+00  E= 7.984343D-01
              MO Center=  1.2D-04,  7.3D-01, -3.3D-04, r^2= 3.8D+00
   Bfn.  Coefficient  Atom+Function         Bfn.  Coefficient  Atom+Function  
  ----- ------------  ---------------      ----- ------------  ---------------
    51      1.100401   3 N  pz               89     -1.100402   5 N  pz        
    47     -0.610781   3 N  pz               85      0.610781   5 N  pz        
    32     -0.487067   2 C  pz              108      0.487067   6 C  pz        
    43     -0.172556   3 N  pz               81      0.172556   5 N  pz        
    73      0.113072   4 C  dxz              28      0.076184   2 C  pz        

 Vector   53  Occ=0.000000D+00  E= 8.594411D-01
              MO Center= -1.1D-04, -5.8D-01,  1.2D-04, r^2= 4.7D+00
   Bfn.  Coefficient  Atom+Function         Bfn.  Coefficient  Atom+Function  
  ----- ------------  ---------------      ----- ------------  ---------------
    10      8.458118   1 C  s                29     -4.290091   2 C  s         
   105     -4.290006   6 C  s                69      1.755942   4 C  py        
    12      1.676910   1 C  py               30     -1.583258   2 C  px        
   106      1.583667   6 C  px                6     -1.435274   1 C  s         
    31      1.347141   2 C  py              107      1.346584   6 C  py        

 Vector   54  Occ=0.000000D+00  E= 8.756511D-01
              MO Center=  1.2D-05, -1.5D-01,  1.8D-04, r^2= 5.3D+00
   Bfn.  Coefficient  Atom+Function         Bfn.  Coefficient  Atom+Function  
  ----- ------------  ---------------      ----- ------------  ---------------
    29      4.416721   2 C  s               105     -4.416714   6 C  s         
    11      4.305969   1 C  px               31     -2.316794   2 C  py        
   107      2.316630   6 C  py               49     -0.905060   3 N  px        
    87     -0.905323   5 N  px               50      0.847436   3 N  py        
    88     -0.847153   5 N  py               68      0.750776   4 C  px        

 Vector   55  Occ=0.000000D+00  E= 8.843916D-01
              MO Center= -5.7D-05, -2.4D-01, -1.1D-02, r^2= 4.7D+00
   Bfn.  Coefficient  Atom+Function         Bfn.  Coefficient  Atom+Function  
  ----- ------------  ---------------      ----- ------------  ---------------
    12      3.536205   1 C  py               69      2.755567   4 C  py        
   116      1.570581   7 H  s                67     -1.306582   4 C  s         
   122     -1.052369   9 H  s                48      1.033373   3 N  s         
    86      1.033371   5 N  s               117      0.970520   7 H  s         
   123     -0.712237   9 H  s                25     -0.622056   2 C  s         

 Vector   56  Occ=0.000000D+00  E= 8.923465D-01
              MO Center=  1.1D-04,  6.9D-01,  9.7D-03, r^2= 4.3D+00
   Bfn.  Coefficient  Atom+Function         Bfn.  Coefficient  Atom+Function  
  ----- ------------  ---------------      ----- ------------  ---------------
    51      1.499753   3 N  pz               89      1.499752   5 N  pz        
    70     -1.049481   4 C  pz               32     -0.767373   2 C  pz        
   108     -0.767373   6 C  pz               13      0.672864   1 C  pz        
    47     -0.625515   3 N  pz               85     -0.625515   5 N  pz        
    43     -0.166253   3 N  pz               81     -0.166253   5 N  pz        

 Vector   57  Occ=0.000000D+00  E= 9.303417D-01
              MO Center= -2.1D-06, -3.0D-02,  1.1D-03, r^2= 5.5D+00
   Bfn.  Coefficient  Atom+Function         Bfn.  Coefficient  Atom+Function  
  ----- ------------  ---------------      ----- ------------  ---------------
    30      3.705961   2 C  px              106      3.705428   6 C  px        
    31      1.731125   2 C  py              107     -1.732300   6 C  py        
    29      1.567721   2 C  s               105     -1.567749   6 C  s         
   119      1.412441   8 H  s               125     -1.412443  10 H  s         
    68      1.321169   4 C  px              120      0.978569   8 H  s         

 Vector   58  Occ=0.000000D+00  E= 9.910105D-01
              MO Center=  1.4D-05,  5.1D-02, -3.4D-04, r^2= 5.4D+00
   Bfn.  Coefficient  Atom+Function         Bfn.  Coefficient  Atom+Function  
  ----- ------------  ---------------      ----- ------------  ---------------
    12      6.394200   1 C  py               29     -6.163511   2 C  s         
   105     -6.163649   6 C  s                67      5.791251   4 C  s         
    10      5.623112   1 C  s                31     -2.818499   2 C  py        
   107     -2.819278   6 C  py               30     -2.545069   2 C  px        
   106      2.544182   6 C  px               69     -2.187720   4 C  py        

 Vector   59  Occ=0.000000D+00  E= 1.094977D+00
              MO Center=  1.4D-05,  4.9D-01, -7.4D-04, r^2= 5.3D+00
   Bfn.  Coefficient  Atom+Function         Bfn.  Coefficient  Atom+Function  
  ----- ------------  ---------------      ----- ------------  ---------------
    68      3.641135   4 C  px               50      3.586332   3 N  py        
    88     -3.586807   5 N  py               31      3.083936   2 C  py        
   107     -3.083417   6 C  py               11     -2.796282   1 C  px        
    49      1.799313   3 N  px               87      1.798045   5 N  px        
    30     -1.690681   2 C  px              106     -1.691384   6 C  px        

 Vector   60  Occ=0.000000D+00  E= 1.121584D+00
              MO Center=  1.3D-04,  4.3D-01, -1.1D-03, r^2= 5.6D+00
   Bfn.  Coefficient  Atom+Function         Bfn.  Coefficient  Atom+Function  
  ----- ------------  ---------------      ----- ------------  ---------------
    10      9.106690   1 C  s                12      5.214063   1 C  py        
    30     -4.911957   2 C  px              106      4.911914   6 C  px        
    29     -4.157212   2 C  s               105     -4.157218   6 C  s         
    69     -3.952254   4 C  py               50      1.766842   3 N  py        
    88      1.767463   5 N  py              122      1.535747   9 H  s         

 Vector   61  Occ=0.000000D+00  E= 1.139615D+00
              MO Center= -8.5D-05, -5.7D-01,  2.5D-04, r^2= 2.3D+00
   Bfn.  Coefficient  Atom+Function         Bfn.  Coefficient  Atom+Function  
  ----- ------------  ---------------      ----- ------------  ---------------
    18      0.878323   1 C  dyz              35      0.705628   2 C  dxz       
   111     -0.705537   6 C  dxz              75     -0.575912   4 C  dyz       
    37      0.323011   2 C  dyz             113      0.323221   6 C  dyz       
    54      0.155387   3 N  dxz              92     -0.155414   5 N  dxz       
     9     -0.141359   1 C  pz               51     -0.122434   3 N  pz        

 Vector   62  Occ=0.000000D+00  E= 1.155321D+00
              MO Center= -7.4D-05, -4.3D-01, -2.5D-06, r^2= 2.3D+00
   Bfn.  Coefficient  Atom+Function         Bfn.  Coefficient  Atom+Function  
  ----- ------------  ---------------      ----- ------------  ---------------
    16      0.767229   1 C  dxz              37      0.574668   2 C  dyz       
   113     -0.574539   6 C  dyz              73      0.547380   4 C  dxz       
    35     -0.433622   2 C  dxz             111     -0.433787   6 C  dxz       
    56     -0.203051   3 N  dyz              94      0.203091   5 N  dyz       
    54     -0.116703   3 N  dxz              92     -0.116633   5 N  dxz       

 Vector   63  Occ=0.000000D+00  E= 1.208892D+00
              MO Center=  6.8D-05,  1.9D-01, -4.7D-04, r^2= 3.8D+00
   Bfn.  Coefficient  Atom+Function         Bfn.  Coefficient  Atom+Function  
  ----- ------------  ---------------      ----- ------------  ---------------
    10      6.270964   1 C  s                48      6.214923   3 N  s         
    86      6.215227   5 N  s                29     -5.154516   2 C  s         
   105     -5.154598   6 C  s                12      3.806643   1 C  py        
    67     -2.948741   4 C  s                30     -2.597617   2 C  px        
   106      2.597238   6 C  px               69      1.991088   4 C  py        

 Vector   64  Occ=0.000000D+00  E= 1.222514D+00
              MO Center=  8.2D-05,  7.6D-01,  1.3D-04, r^2= 3.9D+00
   Bfn.  Coefficient  Atom+Function         Bfn.  Coefficient  Atom+Function  
  ----- ------------  ---------------      ----- ------------  ---------------
    48      5.825989   3 N  s                86     -5.825650   5 N  s         
    68      2.507051   4 C  px               31     -1.877438   2 C  py        
   107      1.877837   6 C  py               30     -1.554824   2 C  px        
   106     -1.554072   6 C  px               49      1.511381   3 N  px        
    87      1.511256   5 N  px               44     -1.359887   3 N  s         

 Vector   65  Occ=0.000000D+00  E= 1.362388D+00
              MO Center= -3.7D-05, -2.0D-01, -4.7D-04, r^2= 2.5D+00
   Bfn.  Coefficient  Atom+Function         Bfn.  Coefficient  Atom+Function  
  ----- ------------  ---------------      ----- ------------  ---------------
    35      0.829051   2 C  dxz             111      0.828895   6 C  dxz       
    73      0.749268   4 C  dxz              37      0.471484   2 C  dyz       
   113     -0.471749   6 C  dyz              16     -0.388609   1 C  dxz       
    56     -0.240759   3 N  dyz              94      0.240770   5 N  dyz       
    28     -0.106549   2 C  pz              104      0.106548   6 C  pz        

 Vector   66  Occ=0.000000D+00  E= 1.363499D+00
              MO Center=  1.2D-04,  7.2D-01,  2.0D-04, r^2= 2.0D+00
   Bfn.  Coefficient  Atom+Function         Bfn.  Coefficient  Atom+Function  
  ----- ------------  ---------------      ----- ------------  ---------------
    75      1.444775   4 C  dyz              18      0.673899   1 C  dyz       
    70     -0.339317   4 C  pz               54     -0.242926   3 N  dxz       
    92      0.242969   5 N  dxz              51      0.194269   3 N  pz        
    89      0.194271   5 N  pz               35      0.186008   2 C  dxz       
   111     -0.186040   6 C  dxz              13      0.150262   1 C  pz        

 Vector   67  Occ=0.000000D+00  E= 1.389901D+00
              MO Center= -2.7D-05, -1.6D-01, -3.2D-04, r^2= 4.0D+00
   Bfn.  Coefficient  Atom+Function         Bfn.  Coefficient  Atom+Function  
  ----- ------------  ---------------      ----- ------------  ---------------
    48     -3.137590   3 N  s                86     -3.137578   5 N  s         
    29      2.900616   2 C  s               105      2.900644   6 C  s         
    12     -1.966749   1 C  py               67      1.855947   4 C  s         
    10     -1.492006   1 C  s               116     -0.962559   7 H  s         
    31      0.914293   2 C  py              107      0.914402   6 C  py        

 Vector   68  Occ=0.000000D+00  E= 1.437114D+00
              MO Center= -4.8D-05, -2.9D-01,  5.6D-04, r^2= 2.6D+00
   Bfn.  Coefficient  Atom+Function         Bfn.  Coefficient  Atom+Function  
  ----- ------------  ---------------      ----- ------------  ---------------
    37      1.048153   2 C  dyz             113      1.048135   6 C  dyz       
    18     -0.373211   1 C  dyz              75      0.361125   4 C  dyz       
    56     -0.343311   3 N  dyz              94     -0.343323   5 N  dyz       
    51     -0.226658   3 N  pz               89     -0.226658   5 N  pz        
    70      0.120588   4 C  pz                9      0.119177   1 C  pz        

 Vector   69  Occ=0.000000D+00  E= 1.470479D+00
              MO Center=  7.0D-05,  4.3D-01, -1.2D-04, r^2= 2.5D+00
   Bfn.  Coefficient  Atom+Function         Bfn.  Coefficient  Atom+Function  
  ----- ------------  ---------------      ----- ------------  ---------------
    73      1.131594   4 C  dxz              37     -0.564865   2 C  dyz       
   113      0.564994   6 C  dyz              16     -0.519212   1 C  dxz       
    54     -0.419351   3 N  dxz              92     -0.419363   5 N  dxz       
    35     -0.392355   2 C  dxz             111     -0.392174   6 C  dxz       
    51      0.288244   3 N  pz               89     -0.288245   5 N  pz        

 Vector   70  Occ=0.000000D+00  E= 1.594554D+00
              MO Center=  6.9D-05,  4.1D-01,  2.8D-04, r^2= 3.7D+00
   Bfn.  Coefficient  Atom+Function         Bfn.  Coefficient  Atom+Function  
  ----- ------------  ---------------      ----- ------------  ---------------
   122      1.396274   9 H  s               116     -1.024752   7 H  s         
    12     -0.854840   1 C  py               67     -0.851601   4 C  s         
    74     -0.800388   4 C  dyy              29      0.793397   2 C  s         
   105      0.793422   6 C  s                17      0.544929   1 C  dyy       
    69     -0.536996   4 C  py               10     -0.488794   1 C  s         

 Vector   71  Occ=0.000000D+00  E= 1.623670D+00
              MO Center= -1.1D-04, -6.8D-01, -6.8D-05, r^2= 3.4D+00
   Bfn.  Coefficient  Atom+Function         Bfn.  Coefficient  Atom+Function  
  ----- ------------  ---------------      ----- ------------  ---------------
   119     -1.243892   8 H  s               125      1.243895  10 H  s         
    29      1.142710   2 C  s               105     -1.142686   6 C  s         
    33      0.586022   2 C  dxx             109     -0.585874   6 C  dxx       
    31     -0.490404   2 C  py              107      0.490514   6 C  py        
    15     -0.461316   1 C  dxy              34      0.458490   2 C  dxy       

 Vector   72  Occ=0.000000D+00  E= 1.650494D+00
              MO Center= -5.6D-05, -3.7D-01,  2.2D-04, r^2= 2.8D+00
   Bfn.  Coefficient  Atom+Function         Bfn.  Coefficient  Atom+Function  
  ----- ------------  ---------------      ----- ------------  ---------------
    10      2.162140   1 C  s                12      1.768999   1 C  py        
    29     -1.251906   2 C  s               105     -1.251921   6 C  s         
    48      1.241198   3 N  s                86      1.241206   5 N  s         
    67     -0.755737   4 C  s                 6     -0.655266   1 C  s         
    19     -0.610140   1 C  dzz              34     -0.500503   2 C  dxy       

 Vector   73  Occ=0.000000D+00  E= 1.662817D+00
              MO Center= -9.7D-05, -5.9D-01,  3.2D-04, r^2= 2.9D+00
   Bfn.  Coefficient  Atom+Function         Bfn.  Coefficient  Atom+Function  
  ----- ------------  ---------------      ----- ------------  ---------------
    11      1.502938   1 C  px               15      0.979298   1 C  dxy       
    68     -0.973354   4 C  px               50     -0.917693   3 N  py        
    88      0.917802   5 N  py               34      0.826856   2 C  dxy       
   110      0.826592   6 C  dxy              29      0.527860   2 C  s         
   105     -0.527870   6 C  s                31     -0.517999   2 C  py        

 Vector   74  Occ=0.000000D+00  E= 1.807622D+00
              MO Center= -7.1D-05, -4.5D-01,  4.0D-04, r^2= 4.0D+00
   Bfn.  Coefficient  Atom+Function         Bfn.  Coefficient  Atom+Function  
  ----- ------------  ---------------      ----- ------------  ---------------
   116      1.339928   7 H  s                10     -0.934321   1 C  s         
    69      0.792993   4 C  py               67     -0.783368   4 C  s         
    34      0.743840   2 C  dxy             110     -0.743615   6 C  dxy       
    12      0.639146   1 C  py              119     -0.614306   8 H  s         
   125     -0.614304  10 H  s               122      0.519270   9 H  s         

 Vector   75  Occ=0.000000D+00  E= 1.853441D+00
              MO Center=  1.1D-04,  7.3D-01, -2.7D-04, r^2= 2.6D+00
   Bfn.  Coefficient  Atom+Function         Bfn.  Coefficient  Atom+Function  
  ----- ------------  ---------------      ----- ------------  ---------------
    72      1.585004   4 C  dxy              30     -1.152977   2 C  px        
   106     -1.153115   6 C  px               29     -0.725240   2 C  s         
   105      0.725252   6 C  s                50      0.702964   3 N  py        
    88     -0.703181   5 N  py               49      0.690549   3 N  px        
    87      0.690326   5 N  px               11     -0.655418   1 C  px        

 Vector   76  Occ=0.000000D+00  E= 1.917579D+00
              MO Center= -1.3D-04, -8.5D-01,  4.2D-04, r^2= 2.2D+00
   Bfn.  Coefficient  Atom+Function         Bfn.  Coefficient  Atom+Function  
  ----- ------------  ---------------      ----- ------------  ---------------
    18      1.469625   1 C  dyz              35     -1.099968   2 C  dxz       
   111      1.100045   6 C  dxz              13      0.675276   1 C  pz        
    32     -0.427206   2 C  pz              108     -0.427207   6 C  pz        
    75     -0.394020   4 C  dyz              37      0.231085   2 C  dyz       
   113      0.230734   6 C  dyz               5      0.205833   1 C  pz        

 Vector   77  Occ=0.000000D+00  E= 1.950158D+00
              MO Center=  6.5D-05,  4.0D-01,  9.9D-05, r^2= 2.8D+00
   Bfn.  Coefficient  Atom+Function         Bfn.  Coefficient  Atom+Function  
  ----- ------------  ---------------      ----- ------------  ---------------
    67      1.871023   4 C  s                69     -1.300004   4 C  py        
    76     -0.915244   4 C  dzz              71      0.767855   4 C  dxx       
    19      0.702726   1 C  dzz              29     -0.657588   2 C  s         
   105     -0.657607   6 C  s                30     -0.601018   2 C  px        
   106      0.600834   6 C  px               31     -0.590650   2 C  py        

 Vector   78  Occ=0.000000D+00  E= 1.977276D+00
              MO Center= -4.8D-05, -3.0D-01,  4.8D-04, r^2= 2.8D+00
   Bfn.  Coefficient  Atom+Function         Bfn.  Coefficient  Atom+Function  
  ----- ------------  ---------------      ----- ------------  ---------------
    29      2.018383   2 C  s               105     -2.018399   6 C  s         
    30      0.956933   2 C  px              106      0.956724   6 C  px        
    38     -0.771214   2 C  dzz             114      0.771215   6 C  dzz       
    72      0.722465   4 C  dxy              31      0.682075   2 C  py        
   107     -0.682388   6 C  py               34     -0.643678   2 C  dxy       

 Vector   79  Occ=0.000000D+00  E= 2.039025D+00
              MO Center= -1.1D-04, -6.6D-01, -2.2D-05, r^2= 2.4D+00
   Bfn.  Coefficient  Atom+Function         Bfn.  Coefficient  Atom+Function  
  ----- ------------  ---------------      ----- ------------  ---------------
    16      1.633032   1 C  dxz              35      0.838769   2 C  dxz       
   111      0.838929   6 C  dxz              37     -0.510997   2 C  dyz       
   113      0.510725   6 C  dyz              73      0.448294   4 C  dxz       
    56      0.412381   3 N  dyz              94     -0.412359   5 N  dyz       
    32      0.239571   2 C  pz              108     -0.239569   6 C  pz        

 Vector   80  Occ=0.000000D+00  E= 2.042960D+00
              MO Center= -1.4D-04, -8.9D-01,  3.0D-04, r^2= 3.1D+00
   Bfn.  Coefficient  Atom+Function         Bfn.  Coefficient  Atom+Function  
  ----- ------------  ---------------      ----- ------------  ---------------
    10      2.305349   1 C  s               116     -1.111964   7 H  s         
    29     -1.084249   2 C  s               105     -1.084239   6 C  s         
    31      0.919309   2 C  py              107      0.919200   6 C  py        
   119      0.812678   8 H  s               125      0.812684  10 H  s         
    33     -0.747392   2 C  dxx             109     -0.747552   6 C  dxx       

 Vector   81  Occ=0.000000D+00  E= 2.219924D+00
              MO Center=  5.8D-05,  4.2D-01, -2.6D-05, r^2= 4.7D+00
   Bfn.  Coefficient  Atom+Function         Bfn.  Coefficient  Atom+Function  
  ----- ------------  ---------------      ----- ------------  ---------------
   122      1.352039   9 H  s                12     -0.821421   1 C  py        
   121     -0.714015   9 H  s               119      0.709600   8 H  s         
   125      0.709588  10 H  s                69     -0.601490   4 C  py        
    29      0.435159   2 C  s               105      0.435175   6 C  s         
   118     -0.433515   8 H  s               124     -0.433510  10 H  s         

 Vector   82  Occ=0.000000D+00  E= 2.304252D+00
              MO Center= -7.6D-05, -5.0D-01,  4.5D-05, r^2= 3.7D+00
   Bfn.  Coefficient  Atom+Function         Bfn.  Coefficient  Atom+Function  
  ----- ------------  ---------------      ----- ------------  ---------------
    11      1.672779   1 C  px              119     -1.108944   8 H  s         
   125      1.108951  10 H  s                15      1.070518   1 C  dxy       
    31     -0.916871   2 C  py              107      0.916891   6 C  py        
    29      0.880618   2 C  s               105     -0.880535   6 C  s         
   118      0.508677   8 H  s               124     -0.508678  10 H  s         

 Vector   83  Occ=0.000000D+00  E= 2.318845D+00
              MO Center= -8.9D-05, -5.4D-01,  2.2D-04, r^2= 3.0D+00
   Bfn.  Coefficient  Atom+Function         Bfn.  Coefficient  Atom+Function  
  ----- ------------  ---------------      ----- ------------  ---------------
    15      1.861005   1 C  dxy              11      1.653909   1 C  px        
    29      1.347744   2 C  s               105     -1.347661   6 C  s         
    30      0.942005   2 C  px              106      0.942180   6 C  px        
    34     -0.778827   2 C  dxy             110     -0.778225   6 C  dxy       
    72     -0.742878   4 C  dxy              48      0.737551   3 N  s         

 Vector   84  Occ=0.000000D+00  E= 2.338297D+00
              MO Center=  1.2D-04,  7.8D-01, -2.8D-04, r^2= 2.1D+00
   Bfn.  Coefficient  Atom+Function         Bfn.  Coefficient  Atom+Function  
  ----- ------------  ---------------      ----- ------------  ---------------
    54      0.922225   3 N  dxz              92     -0.922058   5 N  dxz       
    62     -0.614816   4 C  pz               75      0.615221   4 C  dyz       
    70     -0.507350   4 C  pz               56      0.501666   3 N  dyz       
    94      0.501966   5 N  dyz              66      0.460980   4 C  pz        
    37      0.313685   2 C  dyz             113      0.313607   6 C  dyz       

 Vector   85  Occ=0.000000D+00  E= 2.371977D+00
              MO Center= -1.2D-04, -7.3D-01,  4.6D-04, r^2= 3.2D+00
   Bfn.  Coefficient  Atom+Function         Bfn.  Coefficient  Atom+Function  
  ----- ------------  ---------------      ----- ------------  ---------------
    10      6.329089   1 C  s                29     -4.704353   2 C  s         
   105     -4.704399   6 C  s                12      3.761027   1 C  py        
    30     -2.362574   2 C  px              106      2.362295   6 C  px        
    67      1.630653   4 C  s                69     -1.289390   4 C  py        
   116      0.976171   7 H  s                31     -0.952616   2 C  py        

 Vector   86  Occ=0.000000D+00  E= 2.382604D+00
              MO Center=  7.2D-05,  4.2D-01, -2.6D-04, r^2= 2.6D+00
   Bfn.  Coefficient  Atom+Function         Bfn.  Coefficient  Atom+Function  
  ----- ------------  ---------------      ----- ------------  ---------------
    54      0.972296   3 N  dxz              92      0.972509   5 N  dxz       
    73      0.801459   4 C  dxz              37     -0.767432   2 C  dyz       
   113      0.767444   6 C  dyz              56     -0.638240   3 N  dyz       
    94      0.637927   5 N  dyz              16      0.452465   1 C  dxz       
    51      0.366328   3 N  pz               89     -0.366331   5 N  pz        

 Vector   87  Occ=0.000000D+00  E= 2.397686D+00
              MO Center= -1.1D-04, -7.5D-01,  8.1D-04, r^2= 4.3D+00
   Bfn.  Coefficient  Atom+Function         Bfn.  Coefficient  Atom+Function  
  ----- ------------  ---------------      ----- ------------  ---------------
   116      1.406956   7 H  s               115     -0.885323   7 H  s         
   122     -0.888475   9 H  s                10      0.773650   1 C  s         
    12      0.678439   1 C  py                8      0.615829   1 C  py        
   121      0.523153   9 H  s                 4     -0.508761   1 C  py        
   119      0.508574   8 H  s               125      0.508585  10 H  s         

 Vector   88  Occ=0.000000D+00  E= 2.433344D+00
              MO Center=  1.4D-05,  1.1D-01, -2.6D-04, r^2= 2.7D+00
   Bfn.  Coefficient  Atom+Function         Bfn.  Coefficient  Atom+Function  
  ----- ------------  ---------------      ----- ------------  ---------------
    56      0.913960   3 N  dyz              94      0.913809   5 N  dyz       
    37      0.620811   2 C  dyz             113      0.620836   6 C  dyz       
    92      0.462662   5 N  dxz              24      0.460261   2 C  pz        
    54     -0.462372   3 N  dxz             100      0.460261   6 C  pz        
    75     -0.397695   4 C  dyz              28     -0.387240   2 C  pz        

 Vector   89  Occ=0.000000D+00  E= 2.657796D+00
              MO Center= -9.7D-06,  9.1D-01, -4.9D-04, r^2= 2.6D+00
   Bfn.  Coefficient  Atom+Function         Bfn.  Coefficient  Atom+Function  
  ----- ------------  ---------------      ----- ------------  ---------------
    48      1.955644   3 N  s                86      1.955299   5 N  s         
    67     -1.920270   4 C  s                29     -1.104374   2 C  s         
   105     -1.104054   6 C  s                63     -0.887124   4 C  s         
   122     -0.848805   9 H  s                76      0.834039   4 C  dzz       
    69      0.699515   4 C  py               25     -0.635487   2 C  s         

 Vector   90  Occ=0.000000D+00  E= 2.661021D+00
              MO Center=  1.7D-04,  1.1D-01, -3.3D-04, r^2= 3.5D+00
   Bfn.  Coefficient  Atom+Function         Bfn.  Coefficient  Atom+Function  
  ----- ------------  ---------------      ----- ------------  ---------------
    48     -2.001657   3 N  s                86      2.001994   5 N  s         
    29      1.862656   2 C  s               105     -1.862863   6 C  s         
    30      0.954806   2 C  px              106      0.954709   6 C  px        
    49     -0.824432   3 N  px               87     -0.824637   5 N  px        
   119      0.787230   8 H  s               125     -0.787256  10 H  s         

 Vector   91  Occ=0.000000D+00  E= 2.732390D+00
              MO Center= -8.5D-05, -5.5D-01,  2.9D-04, r^2= 2.3D+00
   Bfn.  Coefficient  Atom+Function         Bfn.  Coefficient  Atom+Function  
  ----- ------------  ---------------      ----- ------------  ---------------
     9      1.012509   1 C  pz                5     -0.880582   1 C  pz        
    56      0.616586   3 N  dyz              94      0.616491   5 N  dyz       
    28      0.526218   2 C  pz              104      0.526231   6 C  pz        
    37      0.516883   2 C  dyz             113      0.516836   6 C  dyz       
    13     -0.471798   1 C  pz               24     -0.465946   2 C  pz        

 Vector   92  Occ=0.000000D+00  E= 2.745224D+00
              MO Center= -3.2D-05, -1.8D-01,  8.8D-05, r^2= 2.7D+00
   Bfn.  Coefficient  Atom+Function         Bfn.  Coefficient  Atom+Function  
  ----- ------------  ---------------      ----- ------------  ---------------
    16      0.864682   1 C  dxz              73     -0.859751   4 C  dxz       
    28      0.763032   2 C  pz              104     -0.763025   6 C  pz        
    54     -0.688136   3 N  dxz              92     -0.687967   5 N  dxz       
    24     -0.641506   2 C  pz              100      0.641500   6 C  pz        
    56     -0.511889   3 N  dyz              94      0.512119   5 N  dyz       

 Vector   93  Occ=0.000000D+00  E= 2.842109D+00
              MO Center=  4.6D-05,  2.8D-01, -1.2D-04, r^2= 3.0D+00
   Bfn.  Coefficient  Atom+Function         Bfn.  Coefficient  Atom+Function  
  ----- ------------  ---------------      ----- ------------  ---------------
    67      1.658879   4 C  s                10     -1.072184   1 C  s         
    50     -0.960722   3 N  py               88     -0.960980   5 N  py        
    49     -0.822136   3 N  px               53     -0.820680   3 N  dxy       
    87      0.821830   5 N  px               91      0.821288   5 N  dxy       
    31     -0.757113   2 C  py              107     -0.756947   6 C  py        

 Vector   94  Occ=0.000000D+00  E= 2.865613D+00
              MO Center=  1.5D-04,  1.0D+00, -5.3D-04, r^2= 1.5D+00
   Bfn.  Coefficient  Atom+Function         Bfn.  Coefficient  Atom+Function  
  ----- ------------  ---------------      ----- ------------  ---------------
    66      1.421378   4 C  pz               62     -1.111182   4 C  pz        
    54     -0.703956   3 N  dxz              92      0.703832   5 N  dxz       
    70     -0.460991   4 C  pz               56     -0.367264   3 N  dyz       
    94     -0.367473   5 N  dyz              75     -0.317684   4 C  dyz       
    28     -0.231528   2 C  pz              104     -0.231512   6 C  pz        

 Vector   95  Occ=0.000000D+00  E= 2.877171D+00
              MO Center=  3.6D-05,  1.6D-01,  5.4D-04, r^2= 2.6D+00
   Bfn.  Coefficient  Atom+Function         Bfn.  Coefficient  Atom+Function  
  ----- ------------  ---------------      ----- ------------  ---------------
    56      1.008954   3 N  dyz              94     -1.009103   5 N  dyz       
    28      0.803134   2 C  pz               73      0.803624   4 C  dxz       
   104     -0.803138   6 C  pz               24     -0.625248   2 C  pz        
   100      0.625251   6 C  pz               37      0.473443   2 C  dyz       
   113     -0.473411   6 C  dyz              54      0.441737   3 N  dxz       

 Vector   96  Occ=0.000000D+00  E= 2.900485D+00
              MO Center=  3.8D-05,  2.3D-01, -9.4D-04, r^2= 2.7D+00
   Bfn.  Coefficient  Atom+Function         Bfn.  Coefficient  Atom+Function  
  ----- ------------  ---------------      ----- ------------  ---------------
    53      0.868601   3 N  dxy              91      0.868081   5 N  dxy       
    34      0.649432   2 C  dxy             110      0.649691   6 C  dxy       
    72      0.519907   4 C  dxy              48      0.480295   3 N  s         
    86     -0.480298   5 N  s                55      0.440758   3 N  dyy       
    93     -0.441046   5 N  dyy              31     -0.419622   2 C  py        

 Vector   97  Occ=0.000000D+00  E= 2.948237D+00
              MO Center=  8.8D-05,  5.6D-01, -3.0D-04, r^2= 2.6D+00
   Bfn.  Coefficient  Atom+Function         Bfn.  Coefficient  Atom+Function  
  ----- ------------  ---------------      ----- ------------  ---------------
    68      1.179321   4 C  px               50      1.025038   3 N  py        
    88     -1.025148   5 N  py               31      0.991880   2 C  py        
   107     -0.991840   6 C  py               53      0.828546   3 N  dxy       
    91      0.829037   5 N  dxy              11     -0.687585   1 C  px        
    60      0.666850   4 C  px               34      0.452038   2 C  dxy       

 Vector   98  Occ=0.000000D+00  E= 2.971988D+00
              MO Center=  3.1D-05,  1.8D-01,  2.9D-04, r^2= 3.3D+00
   Bfn.  Coefficient  Atom+Function         Bfn.  Coefficient  Atom+Function  
  ----- ------------  ---------------      ----- ------------  ---------------
    10      2.351984   1 C  s                29     -1.813660   2 C  s         
   105     -1.813678   6 C  s                12      1.305619   1 C  py        
    67      1.148142   4 C  s                69     -0.961883   4 C  py        
    74      0.828837   4 C  dyy             122      0.786935   9 H  s         
    30     -0.778565   2 C  px              106      0.778385   6 C  px        

 Vector   99  Occ=0.000000D+00  E= 2.990325D+00
              MO Center= -1.3D-04, -8.1D-01,  1.3D-04, r^2= 1.8D+00
   Bfn.  Coefficient  Atom+Function         Bfn.  Coefficient  Atom+Function  
  ----- ------------  ---------------      ----- ------------  ---------------
     9      1.248532   1 C  pz                5     -0.915385   1 C  pz        
    28     -0.868335   2 C  pz              104     -0.868333   6 C  pz        
    24      0.629112   2 C  pz              100      0.629111   6 C  pz        
    13     -0.574226   1 C  pz               18      0.453664   1 C  dyz       
    35     -0.411822   2 C  dxz             111      0.411818   6 C  dxz       

 Vector  100  Occ=0.000000D+00  E= 3.055817D+00
              MO Center= -1.0D-04, -5.6D-01,  5.7D-04, r^2= 2.8D+00
   Bfn.  Coefficient  Atom+Function         Bfn.  Coefficient  Atom+Function  
  ----- ------------  ---------------      ----- ------------  ---------------
    10      1.759866   1 C  s                67     -1.391757   4 C  s         
     6      1.325949   1 C  s                17     -1.057873   1 C  dyy       
    19     -0.974697   1 C  dzz              14     -0.967724   1 C  dxx       
    25      0.889524   2 C  s               101      0.889504   6 C  s         
    63     -0.870714   4 C  s                71      0.716475   4 C  dxx       

 Vector  101  Occ=0.000000D+00  E= 3.098922D+00
              MO Center= -1.1D-04, -7.8D-01,  2.7D-05, r^2= 2.4D+00
   Bfn.  Coefficient  Atom+Function         Bfn.  Coefficient  Atom+Function  
  ----- ------------  ---------------      ----- ------------  ---------------
    29      1.607643   2 C  s               105     -1.607635   6 C  s         
    25      1.311181   2 C  s               101     -1.311199   6 C  s         
    36     -1.133551   2 C  dyy             112      1.133554   6 C  dyy       
    33     -1.105479   2 C  dxx             109      1.105501   6 C  dxx       
    38     -0.893824   2 C  dzz             114      0.893835   6 C  dzz       

 Vector  102  Occ=0.000000D+00  E= 3.172105D+00
              MO Center=  1.2D-04,  7.5D-01,  1.4D-04, r^2= 3.2D+00
   Bfn.  Coefficient  Atom+Function         Bfn.  Coefficient  Atom+Function  
  ----- ------------  ---------------      ----- ------------  ---------------
    10      3.882278   1 C  s                29     -2.098053   2 C  s         
   105     -2.098059   6 C  s                48      1.350554   3 N  s         
    86      1.350545   5 N  s                74     -1.333111   4 C  dyy       
    12      1.248370   1 C  py               63      1.202014   4 C  s         
    71     -1.156197   4 C  dxx              69      1.085661   4 C  py        

 Vector  103  Occ=0.000000D+00  E= 3.233365D+00
              MO Center= -1.1D-04, -6.9D-01,  2.0D-04, r^2= 3.6D+00
   Bfn.  Coefficient  Atom+Function         Bfn.  Coefficient  Atom+Function  
  ----- ------------  ---------------      ----- ------------  ---------------
    12      1.248216   1 C  py               30     -1.013148   2 C  px        
    48      1.010166   3 N  s                86      1.010174   5 N  s         
   106      1.012902   6 C  px                6     -0.811195   1 C  s         
    31     -0.797975   2 C  py              107     -0.798290   6 C  py        
    17      0.780079   1 C  dyy              33     -0.779726   2 C  dxx       

 Vector  104  Occ=0.000000D+00  E= 3.290889D+00
              MO Center= -1.3D-04, -7.8D-01,  3.7D-04, r^2= 2.7D+00
   Bfn.  Coefficient  Atom+Function         Bfn.  Coefficient  Atom+Function  
  ----- ------------  ---------------      ----- ------------  ---------------
    11      1.567207   1 C  px               31     -1.549681   2 C  py        
   107      1.550007   6 C  py               30     -1.058263   2 C  px        
   106     -1.057769   6 C  px               48      0.995030   3 N  s         
    86     -0.995029   5 N  s                 7     -0.947517   1 C  px        
    50     -0.937513   3 N  py               88      0.937528   5 N  py        

 Vector  105  Occ=0.000000D+00  E= 3.332953D+00
              MO Center= -2.1D-04, -1.2D+00,  8.4D-04, r^2= 1.6D+00
   Bfn.  Coefficient  Atom+Function         Bfn.  Coefficient  Atom+Function  
  ----- ------------  ---------------      ----- ------------  ---------------
    12      2.589473   1 C  py              116      1.192914   7 H  s         
    29     -1.126805   2 C  s               105     -1.126849   6 C  s         
     8     -1.098345   1 C  py                4      0.964078   1 C  py        
   115     -0.815730   7 H  s                31     -0.646645   2 C  py        
   107     -0.646710   6 C  py               10      0.606919   1 C  s         

 Vector  106  Occ=0.000000D+00  E= 3.425033D+00
              MO Center=  3.7D-05,  2.1D-01, -1.1D-04, r^2= 3.1D+00
   Bfn.  Coefficient  Atom+Function         Bfn.  Coefficient  Atom+Function  
  ----- ------------  ---------------      ----- ------------  ---------------
    10      3.026761   1 C  s                12      2.156815   1 C  py        
    29     -2.102056   2 C  s               105     -2.102090   6 C  s         
    30     -1.467163   2 C  px              106      1.467035   6 C  px        
    48      1.189814   3 N  s                86      1.189829   5 N  s         
    65      1.156970   4 C  py              116      0.857910   7 H  s         

 Vector  107  Occ=0.000000D+00  E= 3.488689D+00
              MO Center= -2.1D-05, -6.8D-02, -1.3D-04, r^2= 2.9D+00
   Bfn.  Coefficient  Atom+Function         Bfn.  Coefficient  Atom+Function  
  ----- ------------  ---------------      ----- ------------  ---------------
    50      1.360685   3 N  py               88     -1.360729   5 N  py        
    27      1.326929   2 C  py              103     -1.327069   6 C  py        
    36      0.990600   2 C  dyy             112     -0.990486   6 C  dyy       
    68      0.957779   4 C  px               29      0.866675   2 C  s         
   105     -0.866638   6 C  s                30     -0.830182   2 C  px        

 Vector  108  Occ=0.000000D+00  E= 3.552370D+00
              MO Center=  8.7D-05,  4.8D-01, -3.1D-04, r^2= 2.7D+00
   Bfn.  Coefficient  Atom+Function         Bfn.  Coefficient  Atom+Function  
  ----- ------------  ---------------      ----- ------------  ---------------
    10      3.246858   1 C  s                69     -2.321600   4 C  py        
    30     -1.849440   2 C  px              106      1.849277   6 C  px        
    12      1.622936   1 C  py               29     -1.573194   2 C  s         
   105     -1.573182   6 C  s                27      1.203381   2 C  py        
   103      1.203437   6 C  py               65      1.157503   4 C  py        

 Vector  109  Occ=0.000000D+00  E= 3.600253D+00
              MO Center=  1.4D-04,  8.7D-01, -4.4D-04, r^2= 1.8D+00
   Bfn.  Coefficient  Atom+Function         Bfn.  Coefficient  Atom+Function  
  ----- ------------  ---------------      ----- ------------  ---------------
    64      2.471073   4 C  px               48      1.535850   3 N  s         
    86     -1.535838   5 N  s                49      1.417604   3 N  px        
    87      1.417386   5 N  px               30     -1.377272   2 C  px        
   106     -1.377372   6 C  px               72     -1.299197   4 C  dxy       
    60     -1.076641   4 C  px               68      0.801493   4 C  px        

 Vector  110  Occ=0.000000D+00  E= 3.715284D+00
              MO Center=  6.1D-05,  3.7D-01, -1.9D-04, r^2= 2.7D+00
   Bfn.  Coefficient  Atom+Function         Bfn.  Coefficient  Atom+Function  
  ----- ------------  ---------------      ----- ------------  ---------------
    48      2.714573   3 N  s                86      2.714578   5 N  s         
    67     -1.691972   4 C  s                71     -1.532296   4 C  dxx       
    10      1.327685   1 C  s                29     -1.284988   2 C  s         
   105     -1.284990   6 C  s                36     -1.044236   2 C  dyy       
   112     -1.043995   6 C  dyy              53      0.897744   3 N  dxy       

 Vector  111  Occ=0.000000D+00  E= 3.877745D+00
              MO Center=  1.1D-04,  7.2D-01, -5.3D-04, r^2= 2.0D+00
   Bfn.  Coefficient  Atom+Function         Bfn.  Coefficient  Atom+Function  
  ----- ------------  ---------------      ----- ------------  ---------------
    47      1.096082   3 N  pz               85     -1.096080   5 N  pz        
    43     -0.912283   3 N  pz               81      0.912282   5 N  pz        
    51     -0.454015   3 N  pz               89      0.454014   5 N  pz        
    73      0.386685   4 C  dxz              37     -0.197710   2 C  dyz       
   113      0.197704   6 C  dyz              32      0.151198   2 C  pz        

 Vector  112  Occ=0.000000D+00  E= 3.926584D+00
              MO Center=  1.1D-04,  6.7D-01, -5.0D-04, r^2= 2.1D+00
   Bfn.  Coefficient  Atom+Function         Bfn.  Coefficient  Atom+Function  
  ----- ------------  ---------------      ----- ------------  ---------------
    47      1.120071   3 N  pz               85      1.120073   5 N  pz        
    43     -0.910422   3 N  pz               81     -0.910423   5 N  pz        
    51     -0.642564   3 N  pz               89     -0.642565   5 N  pz        
    70      0.403452   4 C  pz               66     -0.295735   4 C  pz        
    32      0.281334   2 C  pz              108      0.281334   6 C  pz        

 Vector  113  Occ=0.000000D+00  E= 4.192853D+00
              MO Center= -1.3D-04, -8.5D-01,  4.3D-04, r^2= 1.7D+00
   Bfn.  Coefficient  Atom+Function         Bfn.  Coefficient  Atom+Function  
  ----- ------------  ---------------      ----- ------------  ---------------
     8      2.551332   1 C  py               14      2.395356   1 C  dxx       
    26     -1.887213   2 C  px              102      1.887623   6 C  px        
    12     -1.530281   1 C  py               27      1.355360   2 C  py        
   103      1.354761   6 C  py               34      1.314318   2 C  dxy       
   110     -1.313712   6 C  dxy              33     -1.278247   2 C  dxx       

 Vector  114  Occ=0.000000D+00  E= 4.201626D+00
              MO Center=  1.2D-04,  7.9D-01, -5.2D-04, r^2= 2.6D+00
   Bfn.  Coefficient  Atom+Function         Bfn.  Coefficient  Atom+Function  
  ----- ------------  ---------------      ----- ------------  ---------------
    48      2.902734   3 N  s                86     -2.902678   5 N  s         
    68      1.158820   4 C  px                7     -0.978066   1 C  px        
    64      0.949273   4 C  px               72     -0.836427   4 C  dxy       
    57     -0.819335   3 N  dzz              95      0.819328   5 N  dzz       
    45      0.801308   3 N  px               83      0.801518   5 N  px        

 Vector  115  Occ=0.000000D+00  E= 4.314724D+00
              MO Center= -1.2D-04, -7.7D-01,  4.2D-04, r^2= 2.0D+00
   Bfn.  Coefficient  Atom+Function         Bfn.  Coefficient  Atom+Function  
  ----- ------------  ---------------      ----- ------------  ---------------
     7      3.947927   1 C  px               15      2.928955   1 C  dxy       
    26      1.949901   2 C  px              102      1.950303   6 C  px        
    34     -1.774299   2 C  dxy             110     -1.773854   6 C  dxy       
    27     -1.305367   2 C  py              103      1.304733   6 C  py        
    33      1.087489   2 C  dxx             109     -1.088050   6 C  dxx       

 Vector  116  Occ=0.000000D+00  E= 4.360986D+00
              MO Center=  8.1D-05,  5.4D-01, -5.0D-04, r^2= 2.5D+00
   Bfn.  Coefficient  Atom+Function         Bfn.  Coefficient  Atom+Function  
  ----- ------------  ---------------      ----- ------------  ---------------
    48      3.662876   3 N  s                86      3.662854   5 N  s         
    29     -2.360461   2 C  s               105     -2.360467   6 C  s         
    10      1.963231   1 C  s                12      1.722317   1 C  py        
    67     -1.568148   4 C  s                45      0.915456   3 N  px        
    83     -0.915592   5 N  px               65      0.890250   4 C  py        

 Vector  117  Occ=0.000000D+00  E= 4.973890D+00
              MO Center=  1.6D-04,  1.0D+00, -4.2D-04, r^2= 1.3D+00
   Bfn.  Coefficient  Atom+Function         Bfn.  Coefficient  Atom+Function  
  ----- ------------  ---------------      ----- ------------  ---------------
    71      1.688492   4 C  dxx              45     -1.293616   3 N  px        
    83      1.293280   5 N  px               52     -1.087821   3 N  dxx       
    90     -1.087601   5 N  dxx              46     -1.043737   3 N  py        
    65     -1.042671   4 C  py               84     -1.044146   5 N  py        
    44      0.783340   3 N  s                82      0.783344   5 N  s         

 Vector  118  Occ=0.000000D+00  E= 5.124559D+00
              MO Center=  3.3D-05,  1.9D-01, -3.0D-04, r^2= 2.1D+00
   Bfn.  Coefficient  Atom+Function         Bfn.  Coefficient  Atom+Function  
  ----- ------------  ---------------      ----- ------------  ---------------
    46      1.654436   3 N  py               84      1.654434   5 N  py        
    27      1.455187   2 C  py              103      1.455178   6 C  py        
    55     -1.431418   3 N  dyy              93     -1.431392   5 N  dyy       
    36      1.141799   2 C  dyy             112      1.141809   6 C  dyy       
    10      0.905635   1 C  s                29     -0.849258   2 C  s         

 Vector  119  Occ=0.000000D+00  E= 5.217445D+00
              MO Center=  1.5D-05,  1.0D-01, -2.2D-04, r^2= 2.1D+00
   Bfn.  Coefficient  Atom+Function         Bfn.  Coefficient  Atom+Function  
  ----- ------------  ---------------      ----- ------------  ---------------
    27      1.956537   2 C  py              103     -1.956277   6 C  py        
     7     -1.710354   1 C  px               46      1.577456   3 N  py        
    84     -1.577399   5 N  py               55     -1.507748   3 N  dyy       
    93      1.507743   5 N  dyy              15     -1.464654   1 C  dxy       
    36      1.013376   2 C  dyy             112     -1.013599   6 C  dyy       

 Vector  120  Occ=0.000000D+00  E= 5.328611D+00
              MO Center=  1.4D-04,  8.7D-01, -4.2D-04, r^2= 1.3D+00
   Bfn.  Coefficient  Atom+Function         Bfn.  Coefficient  Atom+Function  
  ----- ------------  ---------------      ----- ------------  ---------------
    64      2.826172   4 C  px               72     -2.392340   4 C  dxy       
    45      1.722795   3 N  px               83      1.722448   5 N  px        
    52      1.317220   3 N  dxx              90     -1.316993   5 N  dxx       
    46      1.089088   3 N  py               84     -1.089629   5 N  py        
    53      0.729262   3 N  dxy              91      0.729927   5 N  dxy       

 Vector  121  Occ=0.000000D+00  E= 2.631180D+01
              MO Center= -1.7D-04, -6.2D-01,  7.8D-05, r^2= 1.5D+00
   Bfn.  Coefficient  Atom+Function         Bfn.  Coefficient  Atom+Function  
  ----- ------------  ---------------      ----- ------------  ---------------
    21      1.816053   2 C  s                97     -1.815949   6 C  s         
    20     -1.492977   2 C  s                96      1.492891   6 C  s         
    25     -0.775371   2 C  s               101      0.775323   6 C  s         
    29     -0.572143   2 C  s               105      0.572081   6 C  s         
    36      0.501530   2 C  dyy             112     -0.501490   6 C  dyy       

 Vector  122  Occ=0.000000D+00  E= 2.631488D+01
              MO Center=  1.4D-04,  4.1D-01,  8.7D-05, r^2= 1.7D+00
   Bfn.  Coefficient  Atom+Function         Bfn.  Coefficient  Atom+Function  
  ----- ------------  ---------------      ----- ------------  ---------------
    59      2.057578   4 C  s                58     -1.690770   4 C  s         
     2     -1.359641   1 C  s                 1      1.118965   1 C  s         
    63     -0.884980   4 C  s                 6      0.621862   1 C  s         
    71      0.586573   4 C  dxx              74      0.522714   4 C  dyy       
    21     -0.506097   2 C  s                97     -0.506484   6 C  s         

 Vector  123  Occ=0.000000D+00  E= 2.635308D+01
              MO Center= -3.5D-05, -2.1D-01,  9.8D-05, r^2= 1.9D+00
   Bfn.  Coefficient  Atom+Function         Bfn.  Coefficient  Atom+Function  
  ----- ------------  ---------------      ----- ------------  ---------------
    21      1.403980   2 C  s                97      1.403977   6 C  s         
    59      1.330104   4 C  s                20     -1.151811   2 C  s         
    96     -1.151808   6 C  s                58     -1.090668   4 C  s         
     2      0.960761   1 C  s                10     -0.809207   1 C  s         
     1     -0.789498   1 C  s                48     -0.645950   3 N  s         

 Vector  124  Occ=0.000000D+00  E= 2.652279D+01
              MO Center= -1.4D-04, -8.7D-01,  5.8D-04, r^2= 1.2D+00
   Bfn.  Coefficient  Atom+Function         Bfn.  Coefficient  Atom+Function  
  ----- ------------  ---------------      ----- ------------  ---------------
     2      1.973637   1 C  s                 1     -1.611269   1 C  s         
    10     -1.616802   1 C  s                21     -1.051717   2 C  s         
    97     -1.051714   6 C  s                29      0.964149   2 C  s         
   105      0.964149   6 C  s                20      0.857657   2 C  s         
    96      0.857655   6 C  s                59      0.789303   4 C  s         

 Vector  125  Occ=0.000000D+00  E= 3.941721D+01
              MO Center=  1.2D-04,  7.1D-01, -5.2D-04, r^2= 1.5D+00
   Bfn.  Coefficient  Atom+Function         Bfn.  Coefficient  Atom+Function  
  ----- ------------  ---------------      ----- ------------  ---------------
    40      1.874708   3 N  s                78      1.874710   5 N  s         
    39     -1.573310   3 N  s                77     -1.573312   5 N  s         
    48     -0.859917   3 N  s                86     -0.859917   5 N  s         
    44     -0.712347   3 N  s                82     -0.712348   5 N  s         
    29      0.539501   2 C  s               105      0.539504   6 C  s         

 Vector  126  Occ=0.000000D+00  E= 3.943739D+01
              MO Center=  1.1D-04,  7.1D-01, -5.1D-04, r^2= 1.5D+00
   Bfn.  Coefficient  Atom+Function         Bfn.  Coefficient  Atom+Function  
  ----- ------------  ---------------      ----- ------------  ---------------
    40      1.876886   3 N  s                78     -1.876884   5 N  s         
    39     -1.574033   3 N  s                77      1.574031   5 N  s         
    44     -0.721953   3 N  s                82      0.721952   5 N  s         
    48     -0.678871   3 N  s                86      0.678869   5 N  s         
    55      0.497772   3 N  dyy              93     -0.497787   5 N  dyy       


 center of mass
 --------------
 x =   0.00000864 y =   0.05320723 z =  -0.00004871

 moments of inertia (a.u.)
 ------------------
         284.747054996484           0.001502309061          -0.002416509281
           0.001502309061         294.676029960792           0.138140658641
          -0.002416509281           0.138140658641         579.422884678703

     Multipole analysis of the density
     ---------------------------------

     L   x y z        total         alpha         beta         nuclear
     -   - - -        -----         -----         ----         -------
     0   0 0 0     -0.000000    -21.000000    -21.000000     42.000000

     1   1 0 0     -0.000149     -0.000075     -0.000075     -0.000000
     1   0 1 0     -0.928744     -0.464372     -0.464372     -0.000000
     1   0 0 1      0.000873      0.000436      0.000436     -0.000000

     2   2 0 0    -27.177312    -95.434432    -95.434432    163.691552
     2   1 1 0      0.000769      0.000041      0.000041      0.000687
     2   1 0 1      0.000262     -0.000805     -0.000805      0.001873
     2   0 2 0    -22.471820    -94.966832    -94.966832    167.461845
     2   0 1 1     -0.001034      0.039210      0.039210     -0.079454
     2   0 0 2    -26.525766    -13.262914    -13.262914      0.000062

  int_init: cando_txs set to always be  F
                                NWChem TDDFT Module
                                -------------------


    pyrimidine LR-TDDFT, LC-wPBE mu=0.367478, 6-311G* Cartesian, PBE0 geometry


            General Information
            -------------------
           No. of orbitals :     252
            Alpha orbitals :     126
             Beta orbitals :     126
        Alpha frozen cores :       0
         Beta frozen cores :       0
     Alpha frozen virtuals :       0
      Beta frozen virtuals :       0
         Spin multiplicity :       1
    Number of AO functions :     126
        Use of symmetry is : off
      Symmetry adaption is : off
         Schwarz screening :  0.10D-07

              XC Information
              --------------
              Hartree-Fock (Exact) Exchange   1.00          
              LC-wPBE(h)Exchange Functional   1.00          
     Perdew 1991 LDA Correlation Functional   1.00 local    
    PerdewBurkeErnz. Correlation Functional   1.00 non-local
           Alpha           :  0.00
           Beta            :  1.00
           Gamma           :  0.37

             TDDFT Information
             -----------------
          Calculation type : TDDFT             
         Wavefunction type : Restricted singlets
          No. of electrons :      42
           Alpha electrons :      21
            Beta electrons :      21
              No. of roots :      30
          Max subspacesize :   10000
            Max iterations :     100
               Target root :       1
           Target symmetry : none
      Symmetry restriction : off
                 Algorithm : Optimal
        Davidson threshold :  0.10D-03

            Memory Information
            ------------------
          Available GA space size is         163824124 doubles
          Available MA space size is         163838724 doubles
          Length of a trial vector is         2205
          Algorithm : Incore multiple tensor contraction
          Estimated peak GA usage is          92206044 doubles
          Estimated peak MA usage is            633000 doubles

   30 smallest eigenvalue differences (eV) 
--------------------------------------------------------
  No. Spin  Occ  Vir  Irrep   E(Occ)    E(Vir)   E(Diff)
--------------------------------------------------------
    1    1   21   22 a        -0.367     0.035    10.952
    2    1   21   23 a        -0.367     0.048    11.298
    3    1   20   22 a        -0.399     0.035    11.805
    4    1   20   23 a        -0.399     0.048    12.151
    5    1   19   22 a        -0.418     0.035    12.329
    6    1   19   23 a        -0.418     0.048    12.675
    7    1   18   22 a        -0.433     0.035    12.734
    8    1   18   23 a        -0.433     0.048    13.080
    9    1   21   24 a        -0.367     0.131    13.548
   10    1   20   24 a        -0.399     0.131    14.401
   11    1   21   25 a        -0.367     0.168    14.563
   12    1   21   26 a        -0.367     0.176    14.785
   13    1   19   24 a        -0.418     0.131    14.925
   14    1   21   27 a        -0.367     0.195    15.286
   15    1   18   24 a        -0.433     0.131    15.331
   16    1   17   22 a        -0.531     0.035    15.408
   17    1   20   25 a        -0.399     0.168    15.416
   18    1   20   26 a        -0.399     0.176    15.638
   19    1   16   22 a        -0.541     0.035    15.690
   20    1   17   23 a        -0.531     0.048    15.754
   21    1   19   25 a        -0.418     0.168    15.940
   22    1   16   23 a        -0.541     0.048    16.036
   23    1   20   27 a        -0.399     0.195    16.139
   24    1   19   26 a        -0.418     0.176    16.163
   25    1   21   28 a        -0.367     0.229    16.227
   26    1   18   25 a        -0.433     0.168    16.346
   27    1   15   22 a        -0.566     0.035    16.356
   28    1   18   26 a        -0.433     0.176    16.568
   29    1   19   27 a        -0.418     0.195    16.663
   30    1   15   23 a        -0.566     0.048    16.702
--------------------------------------------------------

  Entering Davidson iterations
  Restricted singlet excited states

  Iter   NTrls   NConv    DeltaV     DeltaE      Time   
  ----  ------  ------  ---------  ---------  --------- 
    1     30       0     0.40E+00   0.10+100       79.7
    2     90       0     0.57E-01   0.44E-01      148.3
    3    150       0     0.14E+00   0.28E-01      146.5
    4    210       0     0.91E-01   0.16E-01      147.4
    5    270       7     0.30E-01   0.25E-02      148.7
    6    316      19     0.47E-02   0.48E-03      119.4
    7    337      26     0.79E-03   0.98E-05       63.0
    8    344      28     0.13E-03   0.14E-06       31.2
    9    347      30     0.77E-04   0.37E-08       21.9
  ----  ------  ------  ---------  ---------  --------- 
  Convergence criterion met

  Ground state a        -264.159235961994 a.u.

  ----------------------------------------------------------------------------
  Root   1 singlet a              0.171429768 a.u.                4.6648 eV 
  ----------------------------------------------------------------------------
     Transition Moments    X  0.00002   Y -0.00024   Z -0.22841
     Transition Moments   XX -0.00176  XY  0.00002  XZ -0.00006
     Transition Moments   YY -0.00042  YZ -0.42244  ZZ  0.00130
     Dipole Oscillator Strength                    0.0059622524
     Electric Quadrupole                           0.0000000048
     Magnetic Dipole                               0.0000003515
     Total Oscillator Strength                     0.0059626087

     Occ.   17  a   ---  Virt.   28  a    0.05120 X
     Occ.   19  a   ---  Virt.   28  a    0.09514 X
     Occ.   21  a   ---  Virt.   22  a    0.99249 X
  ----------------------------------------------------------------------------
  Root   2 singlet a              0.182770915 a.u.                4.9735 eV 
  ----------------------------------------------------------------------------
     Transition Moments    X -0.00030   Y  0.00001   Z  0.00000
     Transition Moments   XX  0.00014  XY -0.00229  XZ  0.26928
     Transition Moments   YY -0.00004  YZ -0.00004  ZZ -0.00005
     Dipole Oscillator Strength                    0.0000000112
     Electric Quadrupole                           0.0000000024
     Magnetic Dipole                               0.0000000978
     Total Oscillator Strength                     0.0000001113

     Occ.   19  a   ---  Virt.   22  a    0.08658 X
     Occ.   21  a   ---  Virt.   23  a    0.99138 X
     Occ.   21  a   ---  Virt.   28  a   -0.06680 X
  ----------------------------------------------------------------------------
  Root   3 singlet a              0.219064503 a.u.                5.9611 eV 
  ----------------------------------------------------------------------------
     Transition Moments    X -0.50307   Y  0.00008   Z  0.00001
     Transition Moments   XX  0.00018  XY  0.57218  XZ -0.00242
     Transition Moments   YY -0.00018  YZ  0.00010  ZZ -0.00000
     Dipole Oscillator Strength                    0.0369600293
     Electric Quadrupole                           0.0000000183
     Magnetic Dipole                               0.0000002259
     Total Oscillator Strength                     0.0369602735

     Occ.   18  a   ---  Virt.   23  a   -0.50783 X
     Occ.   18  a   ---  Virt.   23  a   -0.07605 Y
     Occ.   20  a   ---  Virt.   22  a   -0.86208 X
  ----------------------------------------------------------------------------
  Root   4 singlet a              0.226981915 a.u.                6.1765 eV 
  ----------------------------------------------------------------------------
     Transition Moments    X  0.00036   Y -0.00003   Z  0.00000
     Transition Moments   XX  0.00008  XY -0.00235  XZ -0.91915
     Transition Moments   YY -0.00016  YZ  0.00015  ZZ  0.00006
     Dipole Oscillator Strength                    0.0000000201
     Electric Quadrupole                           0.0000000526
     Magnetic Dipole                               0.0000026904
     Total Oscillator Strength                     0.0000027631

     Occ.   19  a   ---  Virt.   22  a    0.97708 X
     Occ.   21  a   ---  Virt.   23  a   -0.07305 X
     Occ.   21  a   ---  Virt.   28  a    0.17957 X
  ----------------------------------------------------------------------------
  Root   5 singlet a              0.234628559 a.u.                6.3846 eV 
  ----------------------------------------------------------------------------
     Transition Moments    X  0.00011   Y -0.00088   Z  0.21320
     Transition Moments   XX -0.00129  XY -0.00002  XZ  0.00009
     Transition Moments   YY  0.00026  YZ  0.48973  ZZ  0.00012
     Dipole Oscillator Strength                    0.0071102265
     Electric Quadrupole                           0.0000000165
     Magnetic Dipole                               0.0000003989
     Total Oscillator Strength                     0.0071106419

     Occ.   14  a   ---  Virt.   28  a    0.05246 X
     Occ.   19  a   ---  Virt.   23  a    0.99219 X
     Occ.   19  a   ---  Virt.   28  a   -0.09041 X
  ----------------------------------------------------------------------------
  Root   6 singlet a              0.257048820 a.u.                6.9947 eV 
  ----------------------------------------------------------------------------
     Transition Moments    X -0.00010   Y -0.60219   Z  0.00019
     Transition Moments   XX -0.67184  XY  0.00021  XZ -0.00007
     Transition Moments   YY  0.60230  YZ -0.00166  ZZ -0.16387
     Dipole Oscillator Strength                    0.0621436351
     Electric Quadrupole                           0.0000000372
     Magnetic Dipole                               0.0000000000
     Total Oscillator Strength                     0.0621436723

     Occ.   18  a   ---  Virt.   22  a    0.44239 X
     Occ.   20  a   ---  Virt.   23  a   -0.88998 X
  ----------------------------------------------------------------------------
  Root   7 singlet a              0.291620415 a.u.                7.9354 eV 
  ----------------------------------------------------------------------------
     Transition Moments    X  0.00022   Y  1.43834   Z -0.00066
     Transition Moments   XX -0.46323  XY  0.00015  XZ -0.00002
     Transition Moments   YY  0.41226  YZ -0.00002  ZZ -0.36414
     Dipole Oscillator Strength                    0.4022069244
     Electric Quadrupole                           0.0000000304
     Magnetic Dipole                               0.0000000000
     Total Oscillator Strength                     0.4022069548

     Occ.   18  a   ---  Virt.   22  a    0.88358 X
     Occ.   18  a   ---  Virt.   22  a   -0.09775 Y
     Occ.   19  a   ---  Virt.   24  a    0.06230 X
     Occ.   19  a   ---  Virt.   33  a   -0.08112 X
     Occ.   20  a   ---  Virt.   23  a    0.43840 X
     Occ.   20  a   ---  Virt.   23  a   -0.08728 Y
     Occ.   21  a   ---  Virt.   34  a   -0.07283 X
  ----------------------------------------------------------------------------
  Root   8 singlet a              0.297995630 a.u.                8.1089 eV 
  ----------------------------------------------------------------------------
     Transition Moments    X  1.49201   Y -0.00023   Z  0.00001
     Transition Moments   XX -0.00029  XY -0.88355  XZ  0.00036
     Transition Moments   YY  0.00029  YZ -0.00002  ZZ -0.00000
     Dipole Oscillator Strength                    0.4422433123
     Electric Quadrupole                           0.0000001100
     Magnetic Dipole                               0.0000000124
     Total Oscillator Strength                     0.4422434347

     Occ.   14  a   ---  Virt.   30  a   -0.06113 X
     Occ.   15  a   ---  Virt.   22  a    0.05373 X
     Occ.   16  a   ---  Virt.   29  a   -0.05323 X
     Occ.   18  a   ---  Virt.   23  a   -0.84684 X
     Occ.   18  a   ---  Virt.   23  a    0.07947 Y
     Occ.   19  a   ---  Virt.   32  a   -0.07771 X
     Occ.   20  a   ---  Virt.   22  a    0.49604 X
     Occ.   20  a   ---  Virt.   22  a   -0.11420 Y
     Occ.   21  a   ---  Virt.   24  a    0.08843 X
     Occ.   21  a   ---  Virt.   31  a   -0.06271 X
     Occ.   21  a   ---  Virt.   33  a    0.05292 X
     Occ.   21  a   ---  Virt.   35  a   -0.06359 X
  ----------------------------------------------------------------------------
  Root   9 singlet a              0.329534924 a.u.                8.9671 eV 
  ----------------------------------------------------------------------------
     Transition Moments    X -0.00087   Y -0.00015   Z  0.00000
     Transition Moments   XX  0.00008  XY  0.03327  XZ  1.33200
     Transition Moments   YY -0.00016  YZ -0.00022  ZZ  0.00011
     Dipole Oscillator Strength                    0.0000001703
     Electric Quadrupole                           0.0000003383
     Magnetic Dipole                               0.0000098846
     Total Oscillator Strength                     0.0000103932

     Occ.   16  a   ---  Virt.   23  a    0.24874 X
     Occ.   16  a   ---  Virt.   28  a    0.08106 X
     Occ.   17  a   ---  Virt.   22  a   -0.86893 X
     Occ.   19  a   ---  Virt.   22  a    0.09727 X
     Occ.   21  a   ---  Virt.   28  a   -0.39467 X
  ----------------------------------------------------------------------------
  Root  10 singlet a              0.330893362 a.u.                9.0041 eV 
  ----------------------------------------------------------------------------
     Transition Moments    X -0.02321   Y  0.00001   Z -0.00002
     Transition Moments   XX -0.00078  XY -2.38865  XZ  0.01908
     Transition Moments   YY  0.00076  YZ  0.00005  ZZ  0.00000
     Dipole Oscillator Strength                    0.0001188274
     Electric Quadrupole                           0.0000011008
     Magnetic Dipole                               0.0000000087
     Total Oscillator Strength                     0.0001199369

     Occ.   15  a   ---  Virt.   22  a   -0.07018 X
     Occ.   16  a   ---  Virt.   24  a   -0.06142 X
     Occ.   17  a   ---  Virt.   25  a   -0.08644 X
     Occ.   18  a   ---  Virt.   23  a    0.08310 X
     Occ.   19  a   ---  Virt.   25  a   -0.19758 X
     Occ.   21  a   ---  Virt.   24  a    0.91901 X
     Occ.   21  a   ---  Virt.   26  a    0.21969 X
     Occ.   21  a   ---  Virt.   27  a   -0.14797 X
     Occ.   21  a   ---  Virt.   29  a   -0.08232 X
  ----------------------------------------------------------------------------
  Root  11 singlet a              0.336507647 a.u.                9.1568 eV 
  ----------------------------------------------------------------------------
     Transition Moments    X -0.00008   Y -0.00014   Z -0.09874
     Transition Moments   XX -0.00142  XY -0.00012  XZ  0.00011
     Transition Moments   YY  0.00123  YZ  0.63728  ZZ -0.00004
     Dipole Oscillator Strength                    0.0021870964
     Electric Quadrupole                           0.0000000824
     Magnetic Dipole                               0.0000013068
     Total Oscillator Strength                     0.0021884856

     Occ.   12  a   ---  Virt.   28  a    0.10203 X
     Occ.   16  a   ---  Virt.   22  a   -0.92557 X
     Occ.   17  a   ---  Virt.   23  a    0.31960 X
     Occ.   17  a   ---  Virt.   28  a    0.05118 X
     Occ.   19  a   ---  Virt.   28  a   -0.06903 X
     Occ.   20  a   ---  Virt.   24  a    0.12933 X
  ----------------------------------------------------------------------------
  Root  12 singlet a              0.342151735 a.u.                9.3104 eV 
  ----------------------------------------------------------------------------
     Transition Moments    X -0.00010   Y  0.00098   Z  0.19711
     Transition Moments   XX  0.00130  XY -0.00028  XZ -0.00016
     Transition Moments   YY -0.00220  YZ -0.97129  ZZ  0.00149
     Dipole Oscillator Strength                    0.0088623186
     Electric Quadrupole                           0.0000002012
     Magnetic Dipole                               0.0000005291
     Total Oscillator Strength                     0.0088630489

     Occ.   15  a   ---  Virt.   24  a   -0.12958 X
     Occ.   16  a   ---  Virt.   22  a   -0.16225 X
     Occ.   17  a   ---  Virt.   23  a   -0.06666 X
     Occ.   18  a   ---  Virt.   25  a   -0.05558 X
     Occ.   20  a   ---  Virt.   24  a   -0.96004 X
     Occ.   20  a   ---  Virt.   26  a    0.05245 X
     Occ.   20  a   ---  Virt.   27  a   -0.06619 X
     Occ.   20  a   ---  Virt.   29  a    0.07307 X
  ----------------------------------------------------------------------------
  Root  13 singlet a              0.348942130 a.u.                9.4952 eV 
  ----------------------------------------------------------------------------
     Transition Moments    X  0.00001   Y  0.00022   Z  0.07596
     Transition Moments   XX  0.00032  XY -0.00002  XZ  0.00008
     Transition Moments   YY -0.00321  YZ  0.56350  ZZ  0.00001
     Dipole Oscillator Strength                    0.0013423227
     Electric Quadrupole                           0.0000000718
     Magnetic Dipole                               0.0000020924
     Total Oscillator Strength                     0.0013444869

     Occ.   12  a   ---  Virt.   23  a    0.06800 X
     Occ.   14  a   ---  Virt.   23  a   -0.15396 X
     Occ.   14  a   ---  Virt.   28  a    0.05341 X
     Occ.   16  a   ---  Virt.   22  a   -0.29608 X
     Occ.   17  a   ---  Virt.   23  a   -0.91678 X
     Occ.   17  a   ---  Virt.   28  a    0.11402 X
     Occ.   19  a   ---  Virt.   28  a   -0.08571 X
     Occ.   20  a   ---  Virt.   24  a    0.10918 X
  ----------------------------------------------------------------------------
  Root  14 singlet a              0.355804156 a.u.                9.6819 eV 
  ----------------------------------------------------------------------------
     Transition Moments    X -0.00326   Y  0.00006   Z  0.00000
     Transition Moments   XX -0.00016  XY  0.00118  XZ  0.45190
     Transition Moments   YY  0.00030  YZ -0.00006  ZZ  0.00002
     Dipole Oscillator Strength                    0.0000025237
     Electric Quadrupole                           0.0000000490
     Magnetic Dipole                               0.0000023923
     Total Oscillator Strength                     0.0000049650

     Occ.   10  a   ---  Virt.   23  a    0.06468 X
     Occ.   13  a   ---  Virt.   23  a   -0.06883 X
     Occ.   13  a   ---  Virt.   28  a   -0.07434 X
     Occ.   16  a   ---  Virt.   23  a    0.86372 X
     Occ.   17  a   ---  Virt.   22  a    0.38465 X
     Occ.   19  a   ---  Virt.   22  a    0.05603 X
     Occ.   21  a   ---  Virt.   28  a   -0.28149 X
  ----------------------------------------------------------------------------
  Root  15 singlet a              0.358258521 a.u.                9.7487 eV 
  ----------------------------------------------------------------------------
     Transition Moments    X  0.00008   Y  0.48895   Z  0.00007
     Transition Moments   XX -1.33724  XY -0.00000  XZ  0.00001
     Transition Moments   YY -1.41378  YZ -0.00076  ZZ  0.02431
     Dipole Oscillator Strength                    0.0571003841
     Electric Quadrupole                           0.0000001603
     Magnetic Dipole                               0.0000000000
     Total Oscillator Strength                     0.0571005444

     Occ.   17  a   ---  Virt.   24  a   -0.10098 X
     Occ.   17  a   ---  Virt.   27  a    0.06925 X
     Occ.   19  a   ---  Virt.   24  a   -0.47922 X
     Occ.   19  a   ---  Virt.   26  a   -0.11827 X
     Occ.   19  a   ---  Virt.   27  a    0.18132 X
     Occ.   21  a   ---  Virt.   25  a    0.83413 X
  ----------------------------------------------------------------------------
  Root  16 singlet a              0.364704009 a.u.                9.9241 eV 
  ----------------------------------------------------------------------------
     Transition Moments    X  0.36516   Y -0.00006   Z  0.00001
     Transition Moments   XX  0.00016  XY  0.48035  XZ  0.00068
     Transition Moments   YY -0.00014  YZ -0.00002  ZZ -0.00000
     Dipole Oscillator Strength                    0.0324205357
     Electric Quadrupole                           0.0000000596
     Magnetic Dipole                               0.0000007245
     Total Oscillator Strength                     0.0324213198

     Occ.   16  a   ---  Virt.   24  a   -0.05824 X
     Occ.   16  a   ---  Virt.   26  a   -0.07130 X
     Occ.   19  a   ---  Virt.   25  a   -0.06553 X
     Occ.   21  a   ---  Virt.   24  a    0.16726 X
     Occ.   21  a   ---  Virt.   26  a   -0.94123 X
     Occ.   21  a   ---  Virt.   27  a   -0.24434 X
  ----------------------------------------------------------------------------
  Root  17 singlet a              0.386962361 a.u.               10.5298 eV 
  ----------------------------------------------------------------------------
     Transition Moments    X -0.00099   Y -0.00005   Z  0.00000
     Transition Moments   XX  0.00006  XY  0.00047  XZ -0.98886
     Transition Moments   YY -0.00004  YZ  0.00016  ZZ -0.00005
     Dipole Oscillator Strength                    0.0000002559
     Electric Quadrupole                           0.0000003017
     Magnetic Dipole                               0.0000001537
     Total Oscillator Strength                     0.0000007113

     Occ.   15  a   ---  Virt.   25  a   -0.15537 X
     Occ.   16  a   ---  Virt.   23  a   -0.10430 X
     Occ.   17  a   ---  Virt.   22  a    0.05077 X
     Occ.   18  a   ---  Virt.   24  a   -0.78529 X
     Occ.   18  a   ---  Virt.   26  a   -0.08908 X
     Occ.   18  a   ---  Virt.   27  a    0.13078 X
     Occ.   18  a   ---  Virt.   29  a    0.06577 X
     Occ.   20  a   ---  Virt.   25  a   -0.48938 X
     Occ.   21  a   ---  Virt.   28  a   -0.24390 X
  ----------------------------------------------------------------------------
  Root  18 singlet a              0.388255093 a.u.               10.5650 eV 
  ----------------------------------------------------------------------------
     Transition Moments    X -0.00011   Y  0.00003   Z  0.00000
     Transition Moments   XX -0.00059  XY  0.00083  XZ -0.46830
     Transition Moments   YY  0.00087  YZ  0.00008  ZZ  0.00004
     Dipole Oscillator Strength                    0.0000000034
     Electric Quadrupole                           0.0000000683
     Magnetic Dipole                               0.0000008886
     Total Oscillator Strength                     0.0000009603

     Occ.   12  a   ---  Virt.   22  a   -0.07812 X
     Occ.   13  a   ---  Virt.   23  a    0.11640 X
     Occ.   14  a   ---  Virt.   22  a   -0.19620 X
     Occ.   16  a   ---  Virt.   23  a    0.39183 X
     Occ.   16  a   ---  Virt.   28  a    0.06188 X
     Occ.   17  a   ---  Virt.   22  a   -0.26600 X
     Occ.   18  a   ---  Virt.   24  a   -0.20922 X
     Occ.   19  a   ---  Virt.   22  a   -0.11945 X
     Occ.   20  a   ---  Virt.   25  a   -0.15851 X
     Occ.   21  a   ---  Virt.   23  a    0.05853 X
     Occ.   21  a   ---  Virt.   28  a    0.78552 X
  ----------------------------------------------------------------------------
  Root  19 singlet a              0.393032837 a.u.               10.6950 eV 
  ----------------------------------------------------------------------------
     Transition Moments    X -0.12498   Y  0.00002   Z -0.00005
     Transition Moments   XX  0.00066  XY  2.78273  XZ -0.00000
     Transition Moments   YY -0.00057  YZ  0.00004  ZZ  0.00001
     Dipole Oscillator Strength                    0.0040929079
     Electric Quadrupole                           0.0000025036
     Magnetic Dipole                               0.0000007447
     Total Oscillator Strength                     0.0040961562

     Occ.   15  a   ---  Virt.   22  a   -0.90537 X
     Occ.   17  a   ---  Virt.   25  a    0.06131 X
     Occ.   18  a   ---  Virt.   23  a   -0.05731 X
     Occ.   19  a   ---  Virt.   25  a    0.16092 X
     Occ.   21  a   ---  Virt.   26  a   -0.07737 X
     Occ.   21  a   ---  Virt.   27  a    0.33705 X
  ----------------------------------------------------------------------------
  Root  20 singlet a              0.393496450 a.u.               10.7076 eV 
  ----------------------------------------------------------------------------
     Transition Moments    X  0.00001   Y -0.01254   Z -0.00006
     Transition Moments   XX -2.94952  XY  0.00095  XZ  0.00003
     Transition Moments   YY  4.22541  YZ -0.00312  ZZ  0.04899
     Dipole Oscillator Strength                    0.0000412853
     Electric Quadrupole                           0.0000042132
     Magnetic Dipole                               0.0000000000
     Total Oscillator Strength                     0.0000454985

     Occ.   14  a   ---  Virt.   24  a    0.07891 X
     Occ.   14  a   ---  Virt.   26  a   -0.10878 X
     Occ.   15  a   ---  Virt.   23  a   -0.08450 X
     Occ.   16  a   ---  Virt.   25  a   -0.06747 X
     Occ.   17  a   ---  Virt.   24  a   -0.08932 X
     Occ.   19  a   ---  Virt.   24  a    0.58849 X
     Occ.   19  a   ---  Virt.   26  a    0.63076 X
     Occ.   19  a   ---  Virt.   27  a    0.16907 X
     Occ.   19  a   ---  Virt.   29  a   -0.07355 X
     Occ.   21  a   ---  Virt.   25  a    0.38346 X
     Occ.   21  a   ---  Virt.   30  a   -0.13929 X
     Occ.   21  a   ---  Virt.   32  a    0.06333 X
  ----------------------------------------------------------------------------
  Root  21 singlet a              0.399420383 a.u.               10.8688 eV 
  ----------------------------------------------------------------------------
     Transition Moments    X  0.01193   Y -0.00001   Z -0.00002
     Transition Moments   XX  0.00005  XY -0.05596  XZ  0.00142
     Transition Moments   YY -0.00006  YZ -0.00017  ZZ -0.00001
     Dipole Oscillator Strength                    0.0000379278
     Electric Quadrupole                           0.0000000011
     Magnetic Dipole                               0.0000091848
     Total Oscillator Strength                     0.0000471136

     Occ.   15  a   ---  Virt.   22  a    0.37189 X
     Occ.   16  a   ---  Virt.   24  a   -0.10722 X
     Occ.   16  a   ---  Virt.   27  a   -0.05541 X
     Occ.   19  a   ---  Virt.   25  a    0.29536 X
     Occ.   21  a   ---  Virt.   24  a    0.26795 X
     Occ.   21  a   ---  Virt.   26  a   -0.17746 X
     Occ.   21  a   ---  Virt.   27  a    0.77432 X
     Occ.   21  a   ---  Virt.   29  a    0.18552 X
     Occ.   21  a   ---  Virt.   33  a   -0.08290 X
  ----------------------------------------------------------------------------
  Root  22 singlet a              0.399935808 a.u.               10.8828 eV 
  ----------------------------------------------------------------------------
     Transition Moments    X -0.00078   Y -0.00007   Z -0.00000
     Transition Moments   XX  0.00081  XY  0.00069  XZ -0.10271
     Transition Moments   YY -0.00118  YZ -0.00001  ZZ  0.00000
     Dipole Oscillator Strength                    0.0000001625
     Electric Quadrupole                           0.0000000036
     Magnetic Dipole                               0.0000002493
     Total Oscillator Strength                     0.0000004154

     Occ.   14  a   ---  Virt.   22  a    0.06058 X
     Occ.   18  a   ---  Virt.   24  a   -0.51640 X
     Occ.   18  a   ---  Virt.   26  a   -0.08141 X
     Occ.   18  a   ---  Virt.   29  a    0.07031 X
     Occ.   20  a   ---  Virt.   25  a    0.83507 X
     Occ.   20  a   ---  Virt.   30  a   -0.09719 X
  ----------------------------------------------------------------------------
  Root  23 singlet a              0.402643624 a.u.               10.9565 eV 
  ----------------------------------------------------------------------------
     Transition Moments    X -0.00002   Y -0.00205   Z -0.21412
     Transition Moments   XX  0.04182  XY -0.00015  XZ -0.00014
     Transition Moments   YY -0.04235  YZ -0.83867  ZZ -0.00439
     Dipole Oscillator Strength                    0.0123076512
     Electric Quadrupole                           0.0000002451
     Magnetic Dipole                               0.0000021022
     Total Oscillator Strength                     0.0123099986

     Occ.   13  a   ---  Virt.   22  a    0.06647 X
     Occ.   14  a   ---  Virt.   23  a    0.11778 X
     Occ.   15  a   ---  Virt.   24  a    0.08567 X
     Occ.   15  a   ---  Virt.   26  a    0.15342 X
     Occ.   15  a   ---  Virt.   27  a    0.09111 X
     Occ.   17  a   ---  Virt.   23  a   -0.05796 X
     Occ.   19  a   ---  Virt.   28  a    0.10394 X
     Occ.   20  a   ---  Virt.   24  a   -0.05321 X
     Occ.   20  a   ---  Virt.   26  a   -0.94147 X
     Occ.   20  a   ---  Virt.   27  a    0.16123 X
     Occ.   20  a   ---  Virt.   38  a   -0.06253 X
  ----------------------------------------------------------------------------
  Root  24 singlet a              0.403136692 a.u.               10.9699 eV 
  ----------------------------------------------------------------------------
     Transition Moments    X  0.00005   Y -0.02695   Z  0.00747
     Transition Moments   XX  0.19360  XY -0.00003  XZ -0.00023
     Transition Moments   YY -0.19756  YZ -1.45296  ZZ -0.02277
     Dipole Oscillator Strength                    0.0002102540
     Electric Quadrupole                           0.0000007499
     Magnetic Dipole                               0.0000172742
     Total Oscillator Strength                     0.0002282781

     Occ.    9  a   ---  Virt.   23  a    0.05204 X
     Occ.   12  a   ---  Virt.   23  a    0.08427 X
     Occ.   13  a   ---  Virt.   22  a    0.25146 X
     Occ.   14  a   ---  Virt.   23  a    0.68832 X
     Occ.   14  a   ---  Virt.   28  a    0.11038 X
     Occ.   15  a   ---  Virt.   23  a    0.08093 X
     Occ.   16  a   ---  Virt.   22  a   -0.06847 X
     Occ.   17  a   ---  Virt.   23  a   -0.14002 X
     Occ.   17  a   ---  Virt.   28  a   -0.09476 X
     Occ.   19  a   ---  Virt.   28  a    0.58082 X
     Occ.   20  a   ---  Virt.   24  a    0.06728 X
     Occ.   20  a   ---  Virt.   26  a    0.14772 X
     Occ.   20  a   ---  Virt.   27  a   -0.13644 X
     Occ.   20  a   ---  Virt.   29  a   -0.05663 X
  ----------------------------------------------------------------------------
  Root  25 singlet a              0.403330489 a.u.               10.9752 eV 
  ----------------------------------------------------------------------------
     Transition Moments    X  0.00005   Y  0.26474   Z -0.00143
     Transition Moments   XX -2.33066  XY  0.00073  XZ -0.00006
     Transition Moments   YY  2.34027  YZ -0.13561  ZZ  0.29271
     Dipole Oscillator Strength                    0.0188467921
     Electric Quadrupole                           0.0000019218
     Magnetic Dipole                               0.0000001422
     Total Oscillator Strength                     0.0188488562

     Occ.   14  a   ---  Virt.   23  a    0.06108 X
     Occ.   15  a   ---  Virt.   23  a   -0.94520 X
     Occ.   19  a   ---  Virt.   24  a   -0.18121 X
     Occ.   19  a   ---  Virt.   26  a    0.09811 X
     Occ.   19  a   ---  Virt.   28  a    0.05163 X
     Occ.   20  a   ---  Virt.   28  a   -0.12629 X
     Occ.   21  a   ---  Virt.   25  a   -0.12029 X
  ----------------------------------------------------------------------------
  Root  26 singlet a              0.409996352 a.u.               11.1566 eV 
  ----------------------------------------------------------------------------
     Transition Moments    X -0.00012   Y -0.75258   Z  0.00018
     Transition Moments   XX -1.41256  XY  0.00038  XZ -0.00014
     Transition Moments   YY  0.97397  YZ  0.00077  ZZ  0.06664
     Dipole Oscillator Strength                    0.1548073759
     Electric Quadrupole                           0.0000005326
     Magnetic Dipole                               0.0000000001
     Total Oscillator Strength                     0.1548079086

     Occ.   14  a   ---  Virt.   24  a    0.16551 X
     Occ.   14  a   ---  Virt.   27  a    0.06777 X
     Occ.   15  a   ---  Virt.   23  a   -0.22080 X
     Occ.   16  a   ---  Virt.   25  a   -0.05991 X
     Occ.   17  a   ---  Virt.   24  a   -0.07102 X
     Occ.   19  a   ---  Virt.   24  a    0.56247 X
     Occ.   19  a   ---  Virt.   26  a   -0.71027 X
     Occ.   19  a   ---  Virt.   27  a   -0.12270 X
     Occ.   19  a   ---  Virt.   29  a   -0.05690 X
     Occ.   21  a   ---  Virt.   25  a    0.23642 X
  ----------------------------------------------------------------------------
  Root  27 singlet a              0.410866608 a.u.               11.1803 eV 
  ----------------------------------------------------------------------------
     Transition Moments    X -0.00104   Y -0.00024   Z -0.00000
     Transition Moments   XX -0.00035  XY  0.00345  XZ  0.32684
     Transition Moments   YY  0.00009  YZ -0.00005  ZZ  0.00004
     Dipole Oscillator Strength                    0.0000003120
     Electric Quadrupole                           0.0000000395
     Magnetic Dipole                               0.0000000047
     Total Oscillator Strength                     0.0000003562

     Occ.   12  a   ---  Virt.   22  a    0.11553 X
     Occ.   13  a   ---  Virt.   23  a    0.15811 X
     Occ.   14  a   ---  Virt.   22  a    0.95551 X
     Occ.   16  a   ---  Virt.   23  a    0.07490 X
     Occ.   17  a   ---  Virt.   22  a   -0.05742 X
     Occ.   19  a   ---  Virt.   22  a   -0.06022 X
     Occ.   20  a   ---  Virt.   25  a   -0.09441 X
     Occ.   21  a   ---  Virt.   28  a    0.13822 X
  ----------------------------------------------------------------------------
  Root  28 singlet a              0.419582106 a.u.               11.4174 eV 
  ----------------------------------------------------------------------------
     Transition Moments    X -0.00003   Y -0.00046   Z  0.12034
     Transition Moments   XX -0.01614  XY  0.00001  XZ  0.00004
     Transition Moments   YY  0.02140  YZ  0.20993  ZZ  0.00024
     Dipole Oscillator Strength                    0.0040507591
     Electric Quadrupole                           0.0000000175
     Magnetic Dipole                               0.0000007915
     Total Oscillator Strength                     0.0040515681

     Occ.   13  a   ---  Virt.   22  a    0.17757 X
     Occ.   15  a   ---  Virt.   24  a   -0.06649 X
     Occ.   15  a   ---  Virt.   26  a   -0.13076 X
     Occ.   15  a   ---  Virt.   27  a    0.10638 X
     Occ.   18  a   ---  Virt.   25  a   -0.37279 X
     Occ.   19  a   ---  Virt.   28  a    0.11145 X
     Occ.   20  a   ---  Virt.   26  a    0.15777 X
     Occ.   20  a   ---  Virt.   27  a    0.85993 X
     Occ.   20  a   ---  Virt.   29  a    0.06351 X
     Occ.   20  a   ---  Virt.   31  a   -0.05639 X
  ----------------------------------------------------------------------------
  Root  29 singlet a              0.421291206 a.u.               11.4639 eV 
  ----------------------------------------------------------------------------
     Transition Moments    X -0.00002   Y -0.11896   Z -0.00185
     Transition Moments   XX -2.25901  XY  0.00077  XZ  0.00000
     Transition Moments   YY  2.44762  YZ -0.00226  ZZ  0.18196
     Dipole Oscillator Strength                    0.0039756324
     Electric Quadrupole                           0.0000022062
     Magnetic Dipole                               0.0000000001
     Total Oscillator Strength                     0.0039778387

     Occ.   14  a   ---  Virt.   24  a    0.05549 X
     Occ.   15  a   ---  Virt.   23  a    0.14039 X
     Occ.   20  a   ---  Virt.   28  a   -0.97694 X
     Occ.   21  a   ---  Virt.   30  a    0.05427 X
  ----------------------------------------------------------------------------
  Root  30 singlet a              0.427318535 a.u.               11.6279 eV 
  ----------------------------------------------------------------------------
     Transition Moments    X -0.00003   Y  0.00001   Z  0.02321
     Transition Moments   XX -0.00130  XY  0.00005  XZ -0.00000
     Transition Moments   YY  0.00284  YZ -0.01771  ZZ -0.00002
     Dipole Oscillator Strength                    0.0001534080
     Electric Quadrupole                           0.0000000001
     Magnetic Dipole                               0.0000025803
     Total Oscillator Strength                     0.0001559884

     Occ.   11  a   ---  Virt.   28  a   -0.09818 X
     Occ.   13  a   ---  Virt.   22  a   -0.82839 X
     Occ.   14  a   ---  Virt.   23  a    0.46740 X
     Occ.   17  a   ---  Virt.   28  a    0.07065 X
     Occ.   18  a   ---  Virt.   25  a   -0.14183 X
     Occ.   19  a   ---  Virt.   28  a   -0.16891 X
     Occ.   20  a   ---  Virt.   27  a    0.14604 X

              Target root =      1
          Target symmetry = none
      Ground state energy =   -264.159235961994
        Excitation energy =      0.171429768091
     Excited state energy =   -263.987806193903

  stored tddft:energy   -263.98780619390283     

 Task  times  cpu:      972.8s     wall:      972.8s
 Summary of allocated global arrays
-----------------------------------
  No active global arrays


MA_summarize_allocated_blocks: starting scan ...
MA_summarize_allocated_blocks: scan completed: 0 heap blocks, 0 stack blocks
MA usage statistics:

	allocation statistics:
					      heap	     stack
					      ----	     -----
	current number of blocks	         0	         0
	maximum number of blocks	        17	        60
	current total bytes		         0	         0
	maximum total bytes		  13872016	  22516200
	maximum total K-bytes		     13873	     22517
	maximum total M-bytes		        14	        23


                                NWChem Input Module
                                -------------------




                                     CITATION
                                     --------
                Please cite the following reference when publishing
                           results obtained with NWChem:

          E. Apra, E. J. Bylaska, W. A. de Jong, N. Govind, K. Kowalski,
       T. P. Straatsma, M. Valiev, H. J. J. van Dam, Y. Alexeev, J. Anchell,
       V. Anisimov, F. W. Aquino, R. Atta-Fynn, J. Autschbach, N. P. Bauman,
     J. C. Becca, D. E. Bernholdt, K. Bhaskaran-Nair, S. Bogatko, P. Borowski,
         J. Boschen, J. Brabec, A. Bruner, E. Cauet, Y. Chen, G. N. Chuev,
      C. J. Cramer, J. Daily, M. J. O. Deegan, T. H. Dunning Jr., M. Dupuis,
   K. G. Dyall, G. I. Fann, S. A. Fischer, A. Fonari, H. Fruchtl, L. Gagliardi,
      J. Garza, N. Gawande, S. Ghosh, K. Glaesemann, A. W. Gotz, J. Hammond,
       V. Helms, E. D. Hermes, K. Hirao, S. Hirata, M. Jacquelin, L. Jensen,
   B. G. Johnson, H. Jonsson, R. A. Kendall, M. Klemm, R. Kobayashi, V. Konkov,
      S. Krishnamoorthy, M. Krishnan, Z. Lin, R. D. Lins, R. J. Littlefield,
      A. J. Logsdail, K. Lopata, W. Ma, A. V. Marenich, J. Martin del Campo,
   D. Mejia-Rodriguez, J. E. Moore, J. M. Mullin, T. Nakajima, D. R. Nascimento,
    J. A. Nichols, P. J. Nichols, J. Nieplocha, A. Otero-de-la-Roza, B. Palmer,
    A. Panyala, T. Pirojsirikul, B. Peng, R. Peverati, J. Pittner, L. Pollack,
   R. M. Richard, P. Sadayappan, G. C. Schatz, W. A. Shelton, D. W. Silverstein,
   D. M. A. Smith, T. A. Soares, D. Song, M. Swart, H. L. Taylor, G. S. Thomas,
            V. Tipparaju, D. G. Truhlar, K. Tsemekhman, T. Van Voorhis,
      A. Vazquez-Mayagoitia, P. Verma, O. Villa, A. Vishnu, K. D. Vogiatzis,
        D. Wang, J. H. Weare, M. J. Williamson, T. L. Windus, K. Wolinski,
        A. T. Wong, Q. Wu, C. Yang, Q. Yu, M. Zacharias, Z. Zhang, Y. Zhao,
                                and R. J. Harrison
                        "NWChem: Past, present, and future
                         J. Chem. Phys. 152, 184102 (2020)
                               doi:10.1063/5.0004997

                                      AUTHORS
                                      -------
  E. Apra, E. J. Bylaska, N. Govind, K. Kowalski, M. Valiev, D. Mejia-Rodriguez,
       A. Kunitsa, N. P. Bauman, A. Panyala, W. A. de Jong, T. P. Straatsma,
   H. J. J. van Dam, D. Wang, T. L. Windus, J. Hammond, J. Autschbach, A. Woods,
    K. Bhaskaran-Nair, J. Brabec, K. Lopata, S. A. Fischer, S. Krishnamoorthy,
     M. Jacquelin, W. Ma, M. Klemm, O. Villa, Y. Chen, V. Anisimov, F. Aquino,
     S. Hirata, M. T. Hackler, E. Hermes, L. Jensen, J. E. Moore, J. C. Becca,
      V. Konjkov, T. Risthaus, M. Malagoli, A. Marenich, A. Otero-de-la-Roza,
        J. Mullin, P. Nichols, R. Peverati, J. Pittner, Y. Zhao, P.-D. Fan,
        A. Fonari, M. J. Williamson, R. J. Harrison, J. R. Rehr, M. Dupuis,
     D. Silverstein, D. M. A. Smith, J. Nieplocha, V. Tipparaju, M. Krishnan,
     B. E. Van Kuiken, A. Vazquez-Mayagoitia, M. Swart, Q. Wu, T. Van Voorhis,
     A. A. Auer, M. Nooijen, L. D. Crosby, E. Brown, G. Cisneros, G. I. Fann,
   H. Fruchtl, J. Garza, K. Hirao, R. A. Kendall, J. A. Nichols, K. Tsemekhman,
    K. Wolinski, J. Anchell, D. E. Bernholdt, P. Borowski, T. Clark, D. Clerc,
   H. Dachsel, M. J. O. Deegan, K. Dyall, D. Elwood, E. Glendening, M. Gutowski,
   A. C. Hess, J. Jaffe, B. G. Johnson, J. Ju, R. Kobayashi, R. Kutteh, Z. Lin,
   R. Littlefield, X. Long, B. Meng, T. Nakajima, S. Niu, L. Pollack, M. Rosing,
   K. Glaesemann, G. Sandrone, M. Stave, H. Taylor, G. Thomas, J. H. van Lenthe,
                               A. T. Wong, Z. Zhang.

 Total times  cpu:      972.8s     wall:      972.8s
