 argument  1 = tddft.nw



============================== echo of input deck ==============================
echo
start para_aminophenol_td
title "para-aminophenol LR-TDDFT, LC-wPBE mu=0.299475, 6-311G* Cartesian, PBE0 geometry"
scratch_dir /Users/bldrdge1/Downloads/repos/PlasMol/jobs/final/Step_1/para_aminophenol
permanent_dir /Users/bldrdge1/Downloads/repos/PlasMol/jobs/final/Step_1/para_aminophenol
memory total 2500 mb
charge 0

geometry units angstroms noautosym noautoz
  N      2.79058777    -0.00046626    -0.17476296
  C      1.40198282     0.00012175    -0.06938236
  C      0.68375448     1.20059326    -0.04503750
  C     -0.70274384     1.19893920    -0.00043302
  C     -1.40855333     0.00182880     0.01681938
  O     -2.78595465     0.00459288     0.11429531
  C     -0.70423682    -1.19630017    -0.00034224
  C      0.68230273    -1.19957339    -0.04602204
  H      3.23825681     0.83092395     0.17696387
  H      3.23795323    -0.83198739     0.17693004
  H      1.21904308     2.14683144    -0.06271812
  H     -1.25438782     2.13368436     0.03216105
  H     -3.16709400    -0.01284146    -0.76679374
  H     -1.25632230    -2.13080379     0.03411659
  H      1.21645495    -2.14646560    -0.06457528
end

basis cartesian
  * library 6-311G*
end

dft
  xc xwpbe 1.00 cpbe96 1.0 hfexch 1.00
  cam 0.299475 cam_alpha 0.00 cam_beta 1.00
  mult 1
  grid fine
  iterations 100
  convergence energy 1.0e-7
end

tddft
  nroots 30
  notriplet
end

task tddft energy
================================================================================


                                         
                                         


             Northwest Computational Chemistry Package (NWChem) 7.2.3
             --------------------------------------------------------


                    Environmental Molecular Sciences Laboratory
                       Pacific Northwest National Laboratory
                                Richland, WA 99352

                              Copyright (c) 1994-2022
                       Pacific Northwest National Laboratory
                            Battelle Memorial Institute

             NWChem is an open-source computational chemistry package
                        distributed under the terms of the
                      Educational Community License (ECL) 2.0
             A copy of the license is included with this distribution
                              in the LICENSE.TXT file

                                  ACKNOWLEDGMENT
                                  --------------

            This software and its documentation were developed at the
            EMSL at Pacific Northwest National Laboratory, a multiprogram
            national laboratory, operated for the U.S. Department of Energy
            by Battelle under Contract Number DE-AC05-76RL01830. Support
            for this work was provided by the Department of Energy Office
            of Biological and Environmental Research, Office of Basic
            Energy Sciences, and the Office of Advanced Scientific Computing.


           Job information
           ---------------

    hostname        = CAS-X1HWX6T0HY
    program         = /opt/homebrew/bin/nwchem
    date            = Thu Sep 24 09:48:37 2026

    compiled        = Thu_Dec_26_16:10:57_2024
    source          = /private/tmp/nwchem-20241226-24138-dbs3bh/nwchem-7.2.3
    nwchem branch   = 7.2.3
    nwchem revision = d690e065
    ga revision     = 5.8.0
    use scalapack   = T
    input           = tddft.nw
    prefix          = para_aminophenol_td.
    data base       = /Users/bldrdge1/Downloads/repos/PlasMol/jobs/final/Step_1/para_aminophenol/para_aminophenol_td.db
    status          = startup
    nproc           =        1
    time left       =     -1s



           Memory information
           ------------------

    heap     =   81919996 doubles =    625.0 Mbytes
    stack    =   81920001 doubles =    625.0 Mbytes
    global   =  163840000 doubles =   1250.0 Mbytes (distinct from heap & stack)
    total    =  327679997 doubles =   2500.0 Mbytes
    verify   = yes
    hardfail = no 


           Directory information
           ---------------------

  0 permanent = /Users/bldrdge1/Downloads/repos/PlasMol/jobs/final/Step_1/para_aminophenol
  0 scratch   = /Users/bldrdge1/Downloads/repos/PlasMol/jobs/final/Step_1/para_aminophenol




                                NWChem Input Module
                                -------------------


 para-aminophenol LR-TDDFT, LC-wPBE mu=0.299475, 6-311G* Cartesian, PBE0 geometry
 --------------------------------------------------------------------------------

 Scaling coordinates for geometry "geometry" by  1.889725989
 (inverse scale =  0.529177249)



                             Geometry "geometry" -> ""
                             -------------------------

 Output coordinates in angstroms (scale by  1.889725989 to convert to a.u.)

  No.       Tag          Charge          X              Y              Z
 ---- ---------------- ---------- -------------- -------------- --------------
    1 N                    7.0000     2.78721850    -0.00144001    -0.14632709
    2 C                    6.0000     1.39861355    -0.00085200    -0.04094649
    3 C                    6.0000     0.68038521     1.19961951    -0.01660163
    4 C                    6.0000    -0.70611311     1.19796545     0.02800285
    5 C                    6.0000    -1.41192260     0.00085505     0.04525525
    6 O                    8.0000    -2.78932392     0.00361913     0.14273118
    7 C                    6.0000    -0.70760609    -1.19727392     0.02809363
    8 C                    6.0000     0.67893346    -1.20054714    -0.01758617
    9 H                    1.0000     3.23488754     0.82995020     0.20539974
   10 H                    1.0000     3.23458396    -0.83296114     0.20536591
   11 H                    1.0000     1.21567381     2.14585769    -0.03428225
   12 H                    1.0000    -1.25775709     2.13271061     0.06059692
   13 H                    1.0000    -3.17046327    -0.01381521    -0.73835787
   14 H                    1.0000    -1.25969157    -2.13177754     0.06255246
   15 H                    1.0000     1.21308568    -2.14743935    -0.03613941

      Atomic Mass 
      ----------- 

      N                 14.003070
      C                 12.000000
      O                 15.994910
      H                  1.007825


 Effective nuclear repulsion energy (a.u.)     344.9959586632

            Nuclear Dipole moment (a.u.) 
            ----------------------------
        X                 Y               Z
 ---------------- ---------------- ----------------
    -0.0000000000    -0.0000000000     0.0000000000


            XYZ format geometry
            -------------------
    15
 geometry
 N                     2.78721850    -0.00144001    -0.14632709
 C                     1.39861355    -0.00085200    -0.04094649
 C                     0.68038521     1.19961951    -0.01660163
 C                    -0.70611311     1.19796545     0.02800285
 C                    -1.41192260     0.00085505     0.04525525
 O                    -2.78932392     0.00361913     0.14273118
 C                    -0.70760609    -1.19727392     0.02809363
 C                     0.67893346    -1.20054714    -0.01758617
 H                     3.23488754     0.82995020     0.20539974
 H                     3.23458396    -0.83296114     0.20536591
 H                     1.21567381     2.14585769    -0.03428225
 H                    -1.25775709     2.13271061     0.06059692
 H                    -3.17046327    -0.01381521    -0.73835787
 H                    -1.25969157    -2.13177754     0.06255246
 H                     1.21308568    -2.14743935    -0.03613941

 ==============================================================================
                                internuclear distances
 ------------------------------------------------------------------------------
       center one      |      center two      | atomic units |  angstroms
 ------------------------------------------------------------------------------
    2 C                |   1 N                |     2.63163  |     1.39260
    3 C                |   2 C                |     2.64398  |     1.39913
    4 C                |   3 C                |     2.62146  |     1.38722
    5 C                |   4 C                |     2.62634  |     1.38980
    6 O                |   5 C                |     2.60943  |     1.38085
    7 C                |   5 C                |     2.62656  |     1.38992
    8 C                |   2 C                |     2.64410  |     1.39920
    8 C                |   7 C                |     2.62161  |     1.38730
    9 H                |   1 N                |     1.90415  |     1.00764
   10 H                |   1 N                |     1.90408  |     1.00760
   11 H                |   3 C                |     2.05469  |     1.08730
   12 H                |   4 C                |     2.05200  |     1.08587
   13 H                |   6 O                |     1.81442  |     0.96015
   14 H                |   7 C                |     2.05214  |     1.08595
   15 H                |   8 C                |     2.05474  |     1.08732
 ------------------------------------------------------------------------------
                         number of included internuclear distances:         15
 ==============================================================================



 ==============================================================================
                                 internuclear angles
 ------------------------------------------------------------------------------
        center 1       |       center 2       |       center 3       |  degrees
 ------------------------------------------------------------------------------
    2 C                |   1 N                |   9 H                |   114.60
    2 C                |   1 N                |  10 H                |   114.62
    9 H                |   1 N                |  10 H                |   111.21
    1 N                |   2 C                |   3 C                |   120.90
    1 N                |   2 C                |   8 C                |   120.92
    3 C                |   2 C                |   8 C                |   118.12
    2 C                |   3 C                |   4 C                |   120.84
    2 C                |   3 C                |  11 H                |   119.58
    4 C                |   3 C                |  11 H                |   119.58
    3 C                |   4 C                |   5 C                |   120.60
    3 C                |   4 C                |  12 H                |   120.51
    5 C                |   4 C                |  12 H                |   118.89
    4 C                |   5 C                |   6 O                |   120.38
    4 C                |   5 C                |   7 C                |   119.01
    6 O                |   5 C                |   7 C                |   120.54
    5 C                |   6 O                |  13 H                |   109.34
    5 C                |   7 C                |   8 C                |   120.59
    5 C                |   7 C                |  14 H                |   118.93
    8 C                |   7 C                |  14 H                |   120.47
    2 C                |   8 C                |   7 C                |   120.84
    2 C                |   8 C                |  15 H                |   119.59
    7 C                |   8 C                |  15 H                |   119.58
 ------------------------------------------------------------------------------
                            number of included internuclear angles:         22
 ==============================================================================



  library name resolved from: .nwchemrc
  library file name is: </opt/homebrew/Cellar/nwchem/7.2.3_1/share/nwchem/libraries/>
  


 Summary of "ao basis" -> "" (cartesian)
 ------------------------------------------------------------------------------
       Tag                 Description            Shells   Functions and Types
 ---------------- ------------------------------  ------  ---------------------
 *                          6-311G*                   on all atoms 


  pbe96 is a nonlocal functional; adding pw91lda local functional. 

                                 NWChem DFT Module
                                 -----------------


 para-aminophenol LR-TDDFT, LC-wPBE mu=0.299475, 6-311G* Cartesian, PBE0 geometry


                      Basis "ao basis" -> "ao basis" (cartesian)
                      -----
  N (Nitrogen)
  ------------
            Exponent  Coefficients 
       -------------- ---------------------------------------------------------
  1 S  6.29348000E+03  0.001970
  1 S  9.49044000E+02  0.014961
  1 S  2.18776000E+02  0.073501
  1 S  6.36916000E+01  0.248937
  1 S  1.88282000E+01  0.602460
  1 S  2.72023000E+00  0.256202

  2 S  3.06331000E+01  0.111906
  2 S  7.02614000E+00  0.921666
  2 S  2.11205000E+00 -0.002569

  3 P  3.06331000E+01  0.038312
  3 P  7.02614000E+00  0.237403
  3 P  2.11205000E+00  0.817592

  4 S  6.84009000E-01  1.000000

  5 P  6.84009000E-01  1.000000

  6 S  2.00878000E-01  1.000000

  7 P  2.00878000E-01  1.000000

  8 D  9.13000000E-01  1.000000

  C (Carbon)
  ----------
            Exponent  Coefficients 
       -------------- ---------------------------------------------------------
  1 S  4.56324000E+03  0.001967
  1 S  6.82024000E+02  0.015231
  1 S  1.54973000E+02  0.076127
  1 S  4.44553000E+01  0.260801
  1 S  1.30290000E+01  0.616462
  1 S  1.82773000E+00  0.221006

  2 S  2.09642000E+01  0.114660
  2 S  4.80331000E+00  0.919999
  2 S  1.45933000E+00 -0.003031

  3 P  2.09642000E+01  0.040249
  3 P  4.80331000E+00  0.237594
  3 P  1.45933000E+00  0.815854

  4 S  4.83456000E-01  1.000000

  5 P  4.83456000E-01  1.000000

  6 S  1.45585000E-01  1.000000

  7 P  1.45585000E-01  1.000000

  8 D  6.26000000E-01  1.000000

  O (Oxygen)
  ----------
            Exponent  Coefficients 
       -------------- ---------------------------------------------------------
  1 S  8.58850000E+03  0.001895
  1 S  1.29723000E+03  0.014386
  1 S  2.99296000E+02  0.070732
  1 S  8.73771000E+01  0.240001
  1 S  2.56789000E+01  0.594797
  1 S  3.74004000E+00  0.280802

  2 S  4.21175000E+01  0.113889
  2 S  9.62837000E+00  0.920811
  2 S  2.85332000E+00 -0.003274

  3 P  4.21175000E+01  0.036511
  3 P  9.62837000E+00  0.237153
  3 P  2.85332000E+00  0.819702

  4 S  9.05661000E-01  1.000000

  5 P  9.05661000E-01  1.000000

  6 S  2.55611000E-01  1.000000

  7 P  2.55611000E-01  1.000000

  8 D  1.29200000E+00  1.000000

  H (Hydrogen)
  ------------
            Exponent  Coefficients 
       -------------- ---------------------------------------------------------
  1 S  3.38650000E+01  0.025494
  1 S  5.09479000E+00  0.190373
  1 S  1.15879000E+00  0.852161

  2 S  3.25840000E-01  1.000000

  3 S  1.02741000E-01  1.000000



 Summary of "ao basis" -> "ao basis" (cartesian)
 ------------------------------------------------------------------------------
       Tag                 Description            Shells   Functions and Types
 ---------------- ------------------------------  ------  ---------------------
 N                          6-311G*                  8       19   4s3p1d
 C                          6-311G*                  8       19   4s3p1d
 O                          6-311G*                  8       19   4s3p1d
 H                          6-311G*                  3        3   3s




 Summary of "ao basis" -> "ao basis" (cartesian)
 ------------------------------------------------------------------------------
       Tag                 Description            Shells   Functions and Types
 ---------------- ------------------------------  ------  ---------------------
 N                          6-311G*                  8       19   4s3p1d
 C                          6-311G*                  8       19   4s3p1d
 O                          6-311G*                  8       19   4s3p1d
 H                          6-311G*                  3        3   3s


  int_init: cando_txs set to always be  F
  Caching 1-el integrals 

            General Information
            -------------------
          SCF calculation type: DFT
          Wavefunction type:  closed shell.
          No. of atoms     :    15
          No. of electrons :    58
           Alpha electrons :    29
            Beta electrons :    29
          Charge           :     0
          Spin multiplicity:     1
          Use of symmetry is: off; symmetry adaption is: off
          Maximum number of iterations: 100
          AO basis - number of functions:   173
                     number of shells:    85
          Convergence on energy requested:  1.00D-07
          Convergence on density requested:  1.00D-05
          Convergence on gradient requested:  5.00D-04

              XC Information
              --------------
                     Hartree-Fock (Exact) Exchange  1.000          
                     LC-wPBE(h)Exchange Functional  1.000          
            Perdew 1991 LDA Correlation Functional  1.000 local    
           PerdewBurkeErnz. Correlation Functional  1.000 non-local

           Range-Separation Parameters        
           ---------------------------
           Alpha           :  0.00
           Beta            :  1.00
           Gamma           :  0.30
           Short-Range HF  :     F

             Grid Information
             ----------------
          Grid used for XC integration:  fine      
          Radial quadrature: Mura-Knowles        
          Angular quadrature: Lebedev. 
          Tag              B.-S. Rad. Rad. Pts. Rad. Cut. Ang. Pts.
          ---              ---------- --------- --------- ---------
          N                   0.65       70          14.0       590
          C                   0.70       70          12.0       590
          O                   0.60       70          14.0       590
          H                   0.35       60          15.0       590
          Grid pruning is: on 
          Number of quadrature shells:   980
          Spatial weights used:  Erf1

          Convergence Information
          -----------------------
          Convergence aids based upon iterative change in 
          total energy or number of iterations. 
          Levelshifting, if invoked, occurs when the 
          HOMO/LUMO gap drops below (HL_TOL):  1.00D-02
          DIIS, if invoked, will attempt to extrapolate 
          using up to (NFOCK): 10 stored Fock matrices.

                    Damping( 0%)  Levelshifting(0.5)       DIIS
                  --------------- ------------------- ---------------
          dE  on:    start            ASAP                start   
          dE off:    2 iters        100 iters           100 iters 


      Screening Tolerance Information
      -------------------------------
          Density screening/tol_rho:  1.00D-10
          AO Gaussian exp screening on grid/accAOfunc:  16
          CD Gaussian exp screening on grid/accCDfunc:  20
          XC Gaussian exp screening on grid/accXCfunc:  20
          Schwarz screening/accCoul:  1.00D-08

  
  CAM type calculations without CDFIT are
  only available with the direct option.
  Forcing Direct SCF
  

      Superposition of Atomic Density Guess
      -------------------------------------

 Sum of atomic energies:        -358.59278627

      Non-variational initial energy
      ------------------------------

 Total energy =    -364.009553
 1-e energy   =   -1168.079321
 2-e energy   =     459.073809
 HOMO         =      -0.225598
 LUMO         =      -0.008826

  WARNING: movecs_in_org=atomic not equal to movecs_in=/Users/bldrdge1/Downloads/repos/PlasMol/jobs/final/Step_1/para_aminophenol/para_aminophenol_td.movecs
   Time after variat. SCF:      1.4
   Time prior to 1st pass:      1.4

 Grid_pts file          = /Users/bldrdge1/Downloads/repos/PlasMol/jobs/final/Step_1/para_aminophenol/para_aminophenol_td.gridpts.0
 Record size in doubles =  12289        No. of grid_pts per rec  =   3070
 Max. records in memory =    209        Max. recs in file   =    832659

 Grid integrated density:      58.000014998112
 Requested integration accuracy:   0.10E-06

           Memory utilization after 1st SCF pass: 
           Heap Space remaining (MW):       79.35            79349876
          Stack Space remaining (MW):       81.92            81918660

   convergence    iter        energy       DeltaE   RMS-Dens  Diis-err    time
 ---------------- ----- ----------------- --------- --------- ---------  ------
 d= 0,ls=0.0,diis     1   -362.4617222376 -7.07D+02  4.87D-03  1.75D+00    17.7
 Grid integrated density:      58.000013225604
 Requested integration accuracy:   0.10E-06
 d= 0,ls=0.0,diis     2   -362.5527193914 -9.10D-02  2.54D-03  2.89D-01    33.9
 Grid integrated density:      58.000013527988
 Requested integration accuracy:   0.10E-06
 d= 0,ls=0.0,diis     3   -362.5654145400 -1.27D-02  1.08D-03  1.44D-01    50.1
 Grid integrated density:      58.000013637430
 Requested integration accuracy:   0.10E-06
 d= 0,ls=0.0,diis     4   -362.5765972936 -1.12D-02  1.48D-04  1.12D-03    66.7
 Grid integrated density:      58.000013626010
 Requested integration accuracy:   0.10E-06
 d= 0,ls=0.0,diis     5   -362.5766973094 -1.00D-04  6.76D-05  2.16D-04    83.2
 Grid integrated density:      58.000013618709
 Requested integration accuracy:   0.10E-06
  Resetting Diis
 d= 0,ls=0.0,diis     6   -362.5767212031 -2.39D-05  2.50D-05  1.13D-05    99.7
 Grid integrated density:      58.000013618611
 Requested integration accuracy:   0.10E-06
 d= 0,ls=0.0,diis     7   -362.5767230543 -1.85D-06  8.09D-06  6.60D-07   116.1
 Grid integrated density:      58.000013619795
 Requested integration accuracy:   0.10E-06
 d= 0,ls=0.0,diis     8   -362.5767231843 -1.30D-07  2.94D-06  4.69D-07   132.7
 Grid integrated density:      58.000013619190
 Requested integration accuracy:   0.10E-06
 d= 0,ls=0.0,diis     9   -362.5767232516 -6.73D-08  2.51D-06  3.31D-08   149.1


         Total DFT energy =     -362.576723251609
      One electron energy =    -1175.218095908973
           Coulomb energy =      518.072902513414
    Exchange-Corr. energy =      -50.427488519273
 Nuclear repulsion energy =      344.995958663223

 Numeric. integr. density =       58.000013619190

     Total iterative time =    147.8s



                       DFT Final Molecular Orbital Analysis
                       ------------------------------------

 Vector    1  Occ=2.000000D+00  E=-1.891228D+01
              MO Center= -2.8D+00,  3.6D-03,  1.4D-01, r^2= 1.5D-02
   Bfn.  Coefficient  Atom+Function         Bfn.  Coefficient  Atom+Function  
  ----- ------------  ---------------      ----- ------------  ---------------
    96      0.552400   6 O  s                97      0.464931   6 O  s         

 Vector    2  Occ=2.000000D+00  E=-1.415181D+01
              MO Center=  2.8D+00, -1.4D-03, -1.5D-01, r^2= 2.0D-02
   Bfn.  Coefficient  Atom+Function         Bfn.  Coefficient  Atom+Function  
  ----- ------------  ---------------      ----- ------------  ---------------
     1      0.558570   1 N  s                 2      0.460703   1 N  s         

 Vector    3  Occ=2.000000D+00  E=-1.009329D+01
              MO Center= -1.4D+00,  8.5D-04,  4.5D-02, r^2= 2.9D-02
   Bfn.  Coefficient  Atom+Function         Bfn.  Coefficient  Atom+Function  
  ----- ------------  ---------------      ----- ------------  ---------------
    77      0.564238   5 C  s                78      0.457671   5 C  s         

 Vector    4  Occ=2.000000D+00  E=-1.009257D+01
              MO Center=  1.4D+00, -8.5D-04, -4.1D-02, r^2= 2.9D-02
   Bfn.  Coefficient  Atom+Function         Bfn.  Coefficient  Atom+Function  
  ----- ------------  ---------------      ----- ------------  ---------------
    20      0.564221   2 C  s                21      0.457668   2 C  s         

 Vector    5  Occ=2.000000D+00  E=-1.005012D+01
              MO Center= -4.9D-01, -1.2D+00,  2.1D-02, r^2= 3.0D-01
   Bfn.  Coefficient  Atom+Function         Bfn.  Coefficient  Atom+Function  
  ----- ------------  ---------------      ----- ------------  ---------------
   115      0.516980   7 C  s               116      0.419426   7 C  s         
   134      0.224095   8 C  s               135      0.181847   8 C  s         

 Vector    6  Occ=2.000000D+00  E=-1.004997D+01
              MO Center= -4.2D-01,  1.2D+00,  1.9D-02, r^2= 3.6D-01
   Bfn.  Coefficient  Atom+Function         Bfn.  Coefficient  Atom+Function  
  ----- ------------  ---------------      ----- ------------  ---------------
    58      0.501246   4 C  s                59      0.406663   4 C  s         
    39      0.257316   3 C  s                40      0.208795   3 C  s         
   115      0.027992   7 C  s         

 Vector    7  Occ=2.000000D+00  E=-1.004952D+01
              MO Center=  4.6D-01, -1.2D+00, -1.0D-02, r^2= 3.1D-01
   Bfn.  Coefficient  Atom+Function         Bfn.  Coefficient  Atom+Function  
  ----- ------------  ---------------      ----- ------------  ---------------
   134      0.516629   8 C  s               135      0.419063   8 C  s         
   115     -0.223380   7 C  s               116     -0.181155   7 C  s         
    39      0.037799   3 C  s                40      0.030619   3 C  s         

 Vector    8  Occ=2.000000D+00  E=-1.004943D+01
              MO Center=  3.9D-01,  1.2D+00, -7.3D-03, r^2= 3.7D-01
   Bfn.  Coefficient  Atom+Function         Bfn.  Coefficient  Atom+Function  
  ----- ------------  ---------------      ----- ------------  ---------------
    39      0.500439   3 C  s                40      0.405932   3 C  s         
    58     -0.257664   4 C  s                59     -0.208975   4 C  s         
   134     -0.034505   8 C  s               135     -0.028031   8 C  s         

 Vector    9  Occ=2.000000D+00  E=-1.120748D+00
              MO Center= -2.6D+00,  1.8D-04, -2.0D-02, r^2= 6.5D-01
   Bfn.  Coefficient  Atom+Function         Bfn.  Coefficient  Atom+Function  
  ----- ------------  ---------------      ----- ------------  ---------------
   101      0.497302   6 O  s               105      0.406662   6 O  s         
    82      0.173328   5 C  s                97     -0.173809   6 O  s         
    96     -0.109415   6 O  s               165      0.093794  13 H  s         
    86      0.090248   5 C  s                83     -0.079446   5 C  px        
   104     -0.076989   6 O  pz               78     -0.070526   5 C  s         

 Vector   10  Occ=2.000000D+00  E=-1.015084D+00
              MO Center=  2.2D+00, -1.1D-03, -2.1D-02, r^2= 1.4D+00
   Bfn.  Coefficient  Atom+Function         Bfn.  Coefficient  Atom+Function  
  ----- ------------  ---------------      ----- ------------  ---------------
     6      0.391483   1 N  s                10      0.360320   1 N  s         
    25      0.256047   2 C  s                 2     -0.145492   1 N  s         
    44      0.103060   3 C  s               139      0.103042   8 C  s         
    21     -0.098722   2 C  s                 1     -0.094167   1 N  s         
    30     -0.087465   2 C  px               29      0.081815   2 C  s         

 Vector   11  Occ=2.000000D+00  E=-9.329170D-01
              MO Center=  1.7D-01, -6.8D-04,  5.4D-03, r^2= 3.3D+00
   Bfn.  Coefficient  Atom+Function         Bfn.  Coefficient  Atom+Function  
  ----- ------------  ---------------      ----- ------------  ---------------
    63     -0.205604   4 C  s               120     -0.205729   7 C  s         
     6      0.197546   1 N  s                82     -0.178512   5 C  s         
    44     -0.174637   3 C  s               139     -0.174746   8 C  s         
    10      0.155842   1 N  s               101      0.109077   6 O  s         
   105      0.090579   6 O  s                67     -0.089467   4 C  s         

 Vector   12  Occ=2.000000D+00  E=-8.453965D-01
              MO Center=  1.8D-02, -5.1D-04,  4.9D-03, r^2= 2.9D+00
   Bfn.  Coefficient  Atom+Function         Bfn.  Coefficient  Atom+Function  
  ----- ------------  ---------------      ----- ------------  ---------------
    44      0.251715   3 C  s               139     -0.251851   8 C  s         
    63      0.248057   4 C  s               120     -0.247975   7 C  s         
    67      0.127904   4 C  s               124     -0.128112   7 C  s         
    48      0.118322   3 C  s               143     -0.118369   8 C  s         
    40     -0.095356   3 C  s               135      0.095405   8 C  s         

 Vector   13  Occ=2.000000D+00  E=-8.157031D-01
              MO Center=  1.5D-01,  1.3D-04, -3.2D-03, r^2= 4.3D+00
   Bfn.  Coefficient  Atom+Function         Bfn.  Coefficient  Atom+Function  
  ----- ------------  ---------------      ----- ------------  ---------------
    82     -0.264157   5 C  s                25      0.245784   2 C  s         
     6     -0.159090   1 N  s                44      0.152970   3 C  s         
   139      0.152492   8 C  s               120     -0.135189   7 C  s         
    10     -0.134378   1 N  s                63     -0.134934   4 C  s         
    86     -0.133901   5 C  s                29      0.114982   2 C  s         

 Vector   14  Occ=2.000000D+00  E=-7.174177D-01
              MO Center=  2.1D-01, -3.4D-03,  4.0D-03, r^2= 4.0D+00
   Bfn.  Coefficient  Atom+Function         Bfn.  Coefficient  Atom+Function  
  ----- ------------  ---------------      ----- ------------  ---------------
   120      0.200539   7 C  s                63     -0.198248   4 C  s         
    44      0.180541   3 C  s               139     -0.179665   8 C  s         
    27      0.145243   2 C  py               84     -0.137999   5 C  py        
   124      0.105962   7 C  s                67     -0.103948   4 C  s         
    23      0.100523   2 C  py                8      0.094392   1 N  py        

 Vector   15  Occ=2.000000D+00  E=-6.990059D-01
              MO Center= -1.6D-01,  2.6D-03, -1.5D-02, r^2= 5.5D+00
   Bfn.  Coefficient  Atom+Function         Bfn.  Coefficient  Atom+Function  
  ----- ------------  ---------------      ----- ------------  ---------------
    25      0.225217   2 C  s                82      0.213590   5 C  s         
   102      0.147417   6 O  px                7     -0.128474   1 N  px        
    86      0.120823   5 C  s                29      0.115841   2 C  s         
    63     -0.112015   4 C  s               120     -0.107782   7 C  s         
    98      0.099087   6 O  px              139     -0.096422   8 C  s         

 Vector   16  Occ=2.000000D+00  E=-6.387301D-01
              MO Center= -8.4D-01, -3.9D-03, -1.4D-02, r^2= 4.6D+00
   Bfn.  Coefficient  Atom+Function         Bfn.  Coefficient  Atom+Function  
  ----- ------------  ---------------      ----- ------------  ---------------
   102     -0.172639   6 O  px               83      0.163072   5 C  px        
   104     -0.130888   6 O  pz               98     -0.115077   6 O  px        
   122      0.114777   7 C  py               65     -0.113606   4 C  py        
   141      0.113109   8 C  py               46     -0.112201   3 C  py        
    79      0.106956   5 C  px              166      0.106779  13 H  s         

 Vector   17  Occ=2.000000D+00  E=-6.121235D-01
              MO Center=  1.6D+00, -4.3D-03,  6.9D-03, r^2= 4.6D+00
   Bfn.  Coefficient  Atom+Function         Bfn.  Coefficient  Atom+Function  
  ----- ------------  ---------------      ----- ------------  ---------------
     8      0.269984   1 N  py                4      0.171186   1 N  py        
    12      0.171067   1 N  py              154      0.133098   9 H  s         
   157     -0.127571  10 H  s                84      0.118808   5 C  py        
   153      0.118604   9 H  s               156     -0.113100  10 H  s         
   121      0.110444   7 C  px               64     -0.104333   4 C  px        

 Vector   18  Occ=2.000000D+00  E=-6.079643D-01
              MO Center=  5.5D-01,  7.6D-03, -3.1D-02, r^2= 6.2D+00
   Bfn.  Coefficient  Atom+Function         Bfn.  Coefficient  Atom+Function  
  ----- ------------  ---------------      ----- ------------  ---------------
     7      0.228760   1 N  px               26     -0.180253   2 C  px        
    11      0.152957   1 N  px                3      0.150857   1 N  px        
    22     -0.123850   2 C  px              102      0.114589   6 O  px        
   104      0.112840   6 O  pz               63     -0.106492   4 C  s         
   120     -0.102641   7 C  s                44      0.096777   3 C  s         

 Vector   19  Occ=2.000000D+00  E=-5.395741D-01
              MO Center= -3.2D-01, -3.5D-02,  1.7D-02, r^2= 5.0D+00
   Bfn.  Coefficient  Atom+Function         Bfn.  Coefficient  Atom+Function  
  ----- ------------  ---------------      ----- ------------  ---------------
    86      0.181049   5 C  s                82      0.162773   5 C  s         
   104     -0.137436   6 O  pz               29     -0.135827   2 C  s         
   105     -0.134239   6 O  s                46      0.125919   3 C  py        
   141     -0.122254   8 C  py              172      0.122266  15 H  s         
   160      0.120437  11 H  s               122      0.112914   7 C  py        

 Vector   20  Occ=2.000000D+00  E=-5.342297D-01
              MO Center=  6.2D-01,  3.0D-02,  1.9D-02, r^2= 4.9D+00
   Bfn.  Coefficient  Atom+Function         Bfn.  Coefficient  Atom+Function  
  ----- ------------  ---------------      ----- ------------  ---------------
     8      0.184465   1 N  py               84     -0.156797   5 C  py        
    27     -0.150231   2 C  py               45     -0.131488   3 C  px        
   140      0.127331   8 C  px               12      0.124179   1 N  py        
     4      0.118136   1 N  py               80     -0.110851   5 C  py        
    65      0.110145   4 C  py              154      0.110385   9 H  s         

 Vector   21  Occ=2.000000D+00  E=-5.145635D-01
              MO Center= -9.8D-01, -8.8D-03,  7.8D-02, r^2= 4.6D+00
   Bfn.  Coefficient  Atom+Function         Bfn.  Coefficient  Atom+Function  
  ----- ------------  ---------------      ----- ------------  ---------------
   105      0.188304   6 O  s               104      0.176442   6 O  pz        
   108      0.154053   6 O  pz              101      0.143563   6 O  s         
    26      0.134570   2 C  px              100      0.122033   6 O  pz        
   102     -0.121732   6 O  px                7     -0.120732   1 N  px        
   106     -0.121134   6 O  px               85      0.118178   5 C  pz        

 Vector   22  Occ=2.000000D+00  E=-5.122459D-01
              MO Center=  8.8D-02,  9.0D-03,  4.4D-03, r^2= 4.0D+00
   Bfn.  Coefficient  Atom+Function         Bfn.  Coefficient  Atom+Function  
  ----- ------------  ---------------      ----- ------------  ---------------
   141      0.147745   8 C  py               46      0.145114   3 C  py        
    65      0.132686   4 C  py              122      0.129228   7 C  py        
    45      0.119317   3 C  px              172     -0.119740  15 H  s         
    64     -0.118195   4 C  px              160      0.118564  11 H  s         
   140     -0.117846   8 C  px              121      0.115895   7 C  px        

 Vector   23  Occ=2.000000D+00  E=-4.929921D-01
              MO Center=  6.6D-01,  5.3D-03, -1.8D-02, r^2= 3.6D+00
   Bfn.  Coefficient  Atom+Function         Bfn.  Coefficient  Atom+Function  
  ----- ------------  ---------------      ----- ------------  ---------------
    28      0.187930   2 C  pz                9      0.145401   1 N  pz        
    13      0.144146   1 N  pz               47      0.118904   3 C  pz        
   142      0.118954   8 C  pz               24      0.117535   2 C  pz        
    32      0.110139   2 C  pz               45      0.103885   3 C  px        
   140      0.101979   8 C  px                5      0.097576   1 N  pz        

 Vector   24  Occ=2.000000D+00  E=-4.595089D-01
              MO Center= -3.8D-01, -8.5D-04,  4.0D-02, r^2= 5.4D+00
   Bfn.  Coefficient  Atom+Function         Bfn.  Coefficient  Atom+Function  
  ----- ------------  ---------------      ----- ------------  ---------------
   102      0.173452   6 O  px              106      0.168109   6 O  px        
   104     -0.147489   6 O  pz              108     -0.136388   6 O  pz        
   121      0.123963   7 C  px               64      0.123100   4 C  px        
    98      0.122860   6 O  px              140     -0.122536   8 C  px        
    45     -0.121894   3 C  px               28      0.117655   2 C  pz        

 Vector   25  Occ=2.000000D+00  E=-4.404895D-01
              MO Center= -1.5D-01,  3.0D-03,  2.2D-02, r^2= 4.8D+00
   Bfn.  Coefficient  Atom+Function         Bfn.  Coefficient  Atom+Function  
  ----- ------------  ---------------      ----- ------------  ---------------
    27      0.191151   2 C  py              103     -0.154401   6 O  py        
    46     -0.150878   3 C  py              107     -0.150076   6 O  py        
   141     -0.150513   8 C  py               23      0.133938   2 C  py        
    65      0.127519   4 C  py              122      0.126948   7 C  py        
    31      0.125161   2 C  py              163      0.119313  12 H  s         

 Vector   26  Occ=2.000000D+00  E=-3.987208D-01
              MO Center=  5.3D-01, -5.6D-05, -7.9D-02, r^2= 5.9D+00
   Bfn.  Coefficient  Atom+Function         Bfn.  Coefficient  Atom+Function  
  ----- ------------  ---------------      ----- ------------  ---------------
    13      0.296326   1 N  pz                9      0.250508   1 N  pz        
     5      0.171505   1 N  pz               85     -0.151672   5 C  pz        
    66     -0.142440   4 C  pz              123     -0.142842   7 C  pz        
   104      0.138019   6 O  pz              108      0.132791   6 O  pz        
    70     -0.129945   4 C  pz              127     -0.130237   7 C  pz        

 Vector   27  Occ=2.000000D+00  E=-3.752604D-01
              MO Center= -2.2D+00,  3.0D-03,  1.0D-01, r^2= 2.3D+00
   Bfn.  Coefficient  Atom+Function         Bfn.  Coefficient  Atom+Function  
  ----- ------------  ---------------      ----- ------------  ---------------
   107      0.422400   6 O  py              103      0.381322   6 O  py        
    99      0.267582   6 O  py              124      0.173845   7 C  s         
    67     -0.168573   4 C  s                84     -0.135913   5 C  py        
    65      0.094123   4 C  py              122      0.094347   7 C  py        
   143     -0.091702   8 C  s                48      0.085063   3 C  s         

 Vector   28  Occ=2.000000D+00  E=-3.430977D-01
              MO Center= -2.7D-03,  2.9D-04,  4.4D-03, r^2= 3.0D+00
   Bfn.  Coefficient  Atom+Function         Bfn.  Coefficient  Atom+Function  
  ----- ------------  ---------------      ----- ------------  ---------------
    47      0.210974   3 C  pz              142     -0.210922   8 C  pz        
    66      0.208539   4 C  pz              123     -0.208435   7 C  pz        
    51      0.200039   3 C  pz              146     -0.199957   8 C  pz        
    70      0.192585   4 C  pz              127     -0.192636   7 C  pz        
    43      0.133613   3 C  pz              138     -0.133579   8 C  pz        

 Vector   29  Occ=2.000000D+00  E=-2.843752D-01
              MO Center=  6.8D-01, -8.8D-04, -7.6D-02, r^2= 4.6D+00
   Bfn.  Coefficient  Atom+Function         Bfn.  Coefficient  Atom+Function  
  ----- ------------  ---------------      ----- ------------  ---------------
    13      0.319283   1 N  pz                9      0.226916   1 N  pz        
    85      0.213647   5 C  pz               89      0.183672   5 C  pz        
    28     -0.172757   2 C  pz                5      0.159150   1 N  pz        
    51     -0.156784   3 C  pz              146     -0.156967   8 C  pz        
    32     -0.150335   2 C  pz               47     -0.148750   3 C  pz        

 Vector   30  Occ=0.000000D+00  E= 6.979066D-02
              MO Center= -6.5D-04, -1.8D-03,  8.7D-03, r^2= 3.6D+00
   Bfn.  Coefficient  Atom+Function         Bfn.  Coefficient  Atom+Function  
  ----- ------------  ---------------      ----- ------------  ---------------
    51      0.459901   3 C  pz               70     -0.458881   4 C  pz        
   127      0.461160   7 C  pz              146     -0.459067   8 C  pz        
    66     -0.207782   4 C  pz              123      0.208692   7 C  pz        
    47      0.203376   3 C  pz              142     -0.202935   8 C  pz        
    31      0.145103   2 C  py               62     -0.144125   4 C  pz        

 Vector   31  Occ=0.000000D+00  E= 9.002374D-02
              MO Center=  4.2D-02, -5.5D-04, -3.7D-02, r^2= 5.0D+00
   Bfn.  Coefficient  Atom+Function         Bfn.  Coefficient  Atom+Function  
  ----- ------------  ---------------      ----- ------------  ---------------
    32      0.504928   2 C  pz               89      0.495848   5 C  pz        
   167      0.347187  13 H  s                87      0.283363   5 C  px        
    28      0.268593   2 C  pz               70     -0.257976   4 C  pz        
    30      0.256032   2 C  px               85      0.256603   5 C  pz        
    48      0.253758   3 C  s               127     -0.253262   7 C  pz        

 Vector   32  Occ=0.000000D+00  E= 1.223402D-01
              MO Center=  2.6D+00, -3.0D-03,  2.1D-01, r^2= 6.9D+00
   Bfn.  Coefficient  Atom+Function         Bfn.  Coefficient  Atom+Function  
  ----- ------------  ---------------      ----- ------------  ---------------
    10      0.871286   1 N  s                29      0.747063   2 C  s         
   155     -0.738300   9 H  s               158     -0.738788  10 H  s         
   161     -0.697812  11 H  s               173     -0.699064  15 H  s         
    50      0.496427   3 C  py              145     -0.497261   8 C  py        
    67      0.448448   4 C  s               124      0.448537   7 C  s         

 Vector   33  Occ=0.000000D+00  E= 1.309895D-01
              MO Center= -2.9D+00, -2.8D-02, -8.6D-01, r^2= 4.4D+00
   Bfn.  Coefficient  Atom+Function         Bfn.  Coefficient  Atom+Function  
  ----- ------------  ---------------      ----- ------------  ---------------
   167      1.308218  13 H  s               105     -0.518471   6 O  s         
   170      0.364948  14 H  s                67     -0.361819   4 C  s         
   124     -0.363626   7 C  s               164      0.346883  12 H  s         
   108      0.281913   6 O  pz               87      0.238866   5 C  px        
    86     -0.216640   5 C  s               106      0.212173   6 O  px        

 Vector   34  Occ=0.000000D+00  E= 1.470595D-01
              MO Center=  4.1D-01, -4.6D-02,  7.1D-02, r^2= 1.2D+01
   Bfn.  Coefficient  Atom+Function         Bfn.  Coefficient  Atom+Function  
  ----- ------------  ---------------      ----- ------------  ---------------
   170      0.916238  14 H  s               164      0.894329  12 H  s         
   173      0.788814  15 H  s               161      0.760152  11 H  s         
   155     -0.565346   9 H  s               124     -0.551599   7 C  s         
   143     -0.547700   8 C  s               158     -0.547646  10 H  s         
    48     -0.534239   3 C  s                67     -0.530530   4 C  s         

 Vector   35  Occ=0.000000D+00  E= 1.500926D-01
              MO Center=  1.5D+00,  4.8D-02,  8.8D-02, r^2= 1.0D+01
   Bfn.  Coefficient  Atom+Function         Bfn.  Coefficient  Atom+Function  
  ----- ------------  ---------------      ----- ------------  ---------------
   161      1.017258  11 H  s               173     -0.991993  15 H  s         
   158     -0.696370  10 H  s               155      0.680864   9 H  s         
   164      0.594482  12 H  s               170     -0.564518  14 H  s         
    50     -0.558577   3 C  py              145     -0.549399   8 C  py        
    67     -0.539579   4 C  s               124      0.518202   7 C  s         

 Vector   36  Occ=0.000000D+00  E= 1.874756D-01
              MO Center=  4.2D-01,  4.6D-03,  1.6D-01, r^2= 1.4D+01
   Bfn.  Coefficient  Atom+Function         Bfn.  Coefficient  Atom+Function  
  ----- ------------  ---------------      ----- ------------  ---------------
   164      1.322165  12 H  s               170     -1.323682  14 H  s         
   155     -0.968664   9 H  s               158      0.964709  10 H  s         
   126     -0.716676   7 C  py               69     -0.711610   4 C  py        
    48     -0.611534   3 C  s               143      0.613010   8 C  s         
    67     -0.587488   4 C  s               124      0.578186   7 C  s         

 Vector   37  Occ=0.000000D+00  E= 2.043400D-01
              MO Center=  9.4D-02, -6.5D-03,  3.4D-02, r^2= 1.3D+01
   Bfn.  Coefficient  Atom+Function         Bfn.  Coefficient  Atom+Function  
  ----- ------------  ---------------      ----- ------------  ---------------
    86     -2.142584   5 C  s                29      1.995446   2 C  s         
    30     -1.640010   2 C  px               50      1.610600   3 C  py        
   145     -1.614990   8 C  py               69     -1.546097   4 C  py        
   126      1.545398   7 C  py               48     -1.532341   3 C  s         
   143     -1.522420   8 C  s               173     -1.501310  15 H  s         

 Vector   38  Occ=0.000000D+00  E= 2.273338D-01
              MO Center=  1.3D+00,  1.1D-02,  5.2D-02, r^2= 1.2D+01
   Bfn.  Coefficient  Atom+Function         Bfn.  Coefficient  Atom+Function  
  ----- ------------  ---------------      ----- ------------  ---------------
   161      1.456349  11 H  s               173     -1.447719  15 H  s         
   143      0.993967   8 C  s                48     -0.978545   3 C  s         
   155     -0.965204   9 H  s               158      0.962724  10 H  s         
   164     -0.904558  12 H  s               170      0.894669  14 H  s         
    69      0.718296   4 C  py               50     -0.710456   3 C  py        

 Vector   39  Occ=0.000000D+00  E= 2.572530D-01
              MO Center=  2.1D-02,  5.0D-04, -3.2D-02, r^2= 4.2D+00
   Bfn.  Coefficient  Atom+Function         Bfn.  Coefficient  Atom+Function  
  ----- ------------  ---------------      ----- ------------  ---------------
    51     -0.651069   3 C  pz              146     -0.650705   8 C  pz        
    70      0.645187   4 C  pz              127      0.645134   7 C  pz        
    32      0.628788   2 C  pz               89     -0.595290   5 C  pz        
    30      0.325189   2 C  px               87     -0.319837   5 C  px        
    29      0.313046   2 C  s                10     -0.278902   1 N  s         

 Vector   40  Occ=0.000000D+00  E= 3.013191D-01
              MO Center= -2.7D-01, -6.2D-03,  6.4D-03, r^2= 6.3D+00
   Bfn.  Coefficient  Atom+Function         Bfn.  Coefficient  Atom+Function  
  ----- ------------  ---------------      ----- ------------  ---------------
    29      3.086509   2 C  s                86      1.944288   5 C  s         
   124     -1.135714   7 C  s                67     -1.125033   4 C  s         
   144     -0.879935   8 C  px               49     -0.873601   3 C  px        
   143     -0.790267   8 C  s                48     -0.784979   3 C  s         
   145     -0.707375   8 C  py               50      0.703703   3 C  py        

 Vector   41  Occ=0.000000D+00  E= 3.247389D-01
              MO Center= -8.7D-01,  5.0D-04,  2.1D-02, r^2= 5.5D+00
   Bfn.  Coefficient  Atom+Function         Bfn.  Coefficient  Atom+Function  
  ----- ------------  ---------------      ----- ------------  ---------------
    86      2.979990   5 C  s                87      2.408374   5 C  px        
    67     -1.756377   4 C  s               124     -1.732479   7 C  s         
    69      1.560513   4 C  py              126     -1.557281   7 C  py        
    29      0.935223   2 C  s               105      0.750855   6 O  s         
    11      0.588358   1 N  px               30      0.578597   2 C  px        

 Vector   42  Occ=0.000000D+00  E= 3.509553D-01
              MO Center=  1.4D+00, -1.7D-03, -3.1D-03, r^2= 5.8D+00
   Bfn.  Coefficient  Atom+Function         Bfn.  Coefficient  Atom+Function  
  ----- ------------  ---------------      ----- ------------  ---------------
    30      3.468855   2 C  px               29     -2.496946   2 C  s         
    10     -1.810075   1 N  s                50     -1.773195   3 C  py        
   145      1.771445   8 C  py               48      1.740290   3 C  s         
   143      1.739180   8 C  s                11      0.889615   1 N  px        
   161      0.807156  11 H  s               173      0.805734  15 H  s         

 Vector   43  Occ=0.000000D+00  E= 3.860905D-01
              MO Center=  2.5D-01, -1.2D-03,  4.7D-02, r^2= 6.1D+00
   Bfn.  Coefficient  Atom+Function         Bfn.  Coefficient  Atom+Function  
  ----- ------------  ---------------      ----- ------------  ---------------
   143     -2.361186   8 C  s                48      2.320066   3 C  s         
    31     -2.058469   2 C  py               88     -1.625866   5 C  py        
   125      1.340560   7 C  px               68     -1.312686   4 C  px        
    67      0.999695   4 C  s               124     -0.973866   7 C  s         
   145     -0.921825   8 C  py               50     -0.915550   3 C  py        

 Vector   44  Occ=0.000000D+00  E= 3.975600D-01
              MO Center=  8.6D-01, -1.0D-01, -5.0D-02, r^2= 5.7D+00
   Bfn.  Coefficient  Atom+Function         Bfn.  Coefficient  Atom+Function  
  ----- ------------  ---------------      ----- ------------  ---------------
   124      3.000803   7 C  s               144      2.666554   8 C  px        
    67     -2.314643   4 C  s                49     -1.776740   3 C  px        
   125      1.631638   7 C  px              143     -1.405344   8 C  s         
    31      1.311734   2 C  py               68     -0.762022   4 C  px        
   173     -0.695297  15 H  s               154      0.663781   9 H  s         

 Vector   45  Occ=0.000000D+00  E= 3.978196D-01
              MO Center=  5.2D-01,  1.0D-01, -5.6D-02, r^2= 7.3D+00
   Bfn.  Coefficient  Atom+Function         Bfn.  Coefficient  Atom+Function  
  ----- ------------  ---------------      ----- ------------  ---------------
    86      3.048410   5 C  s                48     -2.748095   3 C  s         
    49      2.637906   3 C  px               68      2.384722   4 C  px        
   143     -2.371258   8 C  s                30     -2.334901   2 C  px        
    67      2.199628   4 C  s                29     -2.149208   2 C  s         
   125      1.891325   7 C  px              144      1.740475   8 C  px        

 Vector   46  Occ=0.000000D+00  E= 4.562286D-01
              MO Center= -1.0D+00, -6.6D-03, -2.6D-02, r^2= 7.3D+00
   Bfn.  Coefficient  Atom+Function         Bfn.  Coefficient  Atom+Function  
  ----- ------------  ---------------      ----- ------------  ---------------
    67     -5.299740   4 C  s               124     -5.288313   7 C  s         
   143      5.109089   8 C  s                48      5.011901   3 C  s         
    87      3.768066   5 C  px               29     -3.187271   2 C  s         
    86      3.080133   5 C  s                30      2.772158   2 C  px        
    69      2.251949   4 C  py              126     -2.239241   7 C  py        

 Vector   47  Occ=0.000000D+00  E= 4.647054D-01
              MO Center=  1.7D-01,  3.6D-02, -1.1D-01, r^2= 6.5D+00
   Bfn.  Coefficient  Atom+Function         Bfn.  Coefficient  Atom+Function  
  ----- ------------  ---------------      ----- ------------  ---------------
    48      3.924350   3 C  s               143     -3.333697   8 C  s         
    31     -2.035766   2 C  py               68     -1.821556   4 C  px        
   125      1.663395   7 C  px               88     -1.234888   5 C  py        
    50     -0.976156   3 C  py               12      0.823479   1 N  py        
   124     -0.748637   7 C  s               145     -0.742014   8 C  py        

 Vector   48  Occ=0.000000D+00  E= 4.659925D-01
              MO Center= -2.6D-01, -3.3D-02, -1.1D-01, r^2= 6.4D+00
   Bfn.  Coefficient  Atom+Function         Bfn.  Coefficient  Atom+Function  
  ----- ------------  ---------------      ----- ------------  ---------------
   143      3.586457   8 C  s                86      3.161362   5 C  s         
    48      3.118460   3 C  s                67     -2.774188   4 C  s         
   124     -2.699927   7 C  s                30      2.373243   2 C  px        
   145      1.417263   8 C  py               49     -1.378497   3 C  px        
   144     -1.359733   8 C  px               50     -1.302448   3 C  py        

 Vector   49  Occ=0.000000D+00  E= 4.888768D-01
              MO Center= -2.3D-01,  1.3D-02, -1.9D-01, r^2= 6.5D+00
   Bfn.  Coefficient  Atom+Function         Bfn.  Coefficient  Atom+Function  
  ----- ------------  ---------------      ----- ------------  ---------------
    67      2.112273   4 C  s               124      2.077698   7 C  s         
    29      1.762085   2 C  s                86     -1.603434   5 C  s         
    30     -1.498278   2 C  px              143     -1.263639   8 C  s         
    48     -1.235698   3 C  s               145     -1.200253   8 C  py        
    50      1.187732   3 C  py               11     -0.589502   1 N  px        

 Vector   50  Occ=0.000000D+00  E= 4.898430D-01
              MO Center=  9.8D-02, -2.1D-03,  2.0D-02, r^2= 4.5D+00
   Bfn.  Coefficient  Atom+Function         Bfn.  Coefficient  Atom+Function  
  ----- ------------  ---------------      ----- ------------  ---------------
    47      0.387129   3 C  pz              142      0.387387   8 C  pz        
    86      0.384098   5 C  s               167     -0.358653  13 H  s         
    51     -0.355494   3 C  pz               89     -0.356807   5 C  pz        
   146     -0.355937   8 C  pz               32     -0.344251   2 C  pz        
    28      0.325257   2 C  pz              123      0.322959   7 C  pz        

 Vector   51  Occ=0.000000D+00  E= 4.918041D-01
              MO Center=  4.6D-01, -1.5D-02,  6.5D-02, r^2= 6.4D+00
   Bfn.  Coefficient  Atom+Function         Bfn.  Coefficient  Atom+Function  
  ----- ------------  ---------------      ----- ------------  ---------------
    67      3.177982   4 C  s               124     -3.168297   7 C  s         
    88     -1.529464   5 C  py               49      0.975251   3 C  px        
   144     -0.959975   8 C  px              157     -0.777784  10 H  s         
   154      0.754963   9 H  s               126     -0.714556   7 C  py        
    69     -0.709792   4 C  py              158      0.656714  10 H  s         

 Vector   52  Occ=0.000000D+00  E= 5.120971D-01
              MO Center= -5.6D-01,  1.1D-03, -6.4D-02, r^2= 7.3D+00
   Bfn.  Coefficient  Atom+Function         Bfn.  Coefficient  Atom+Function  
  ----- ------------  ---------------      ----- ------------  ---------------
    86      1.934355   5 C  s               166     -1.001512  13 H  s         
   124      0.886152   7 C  s               144      0.871582   8 C  px        
    48     -0.826026   3 C  s                49      0.823229   3 C  px        
   125      0.824762   7 C  px              143     -0.818781   8 C  s         
    68      0.808817   4 C  px               67      0.781655   4 C  s         

 Vector   53  Occ=0.000000D+00  E= 5.267343D-01
              MO Center=  1.5D+00,  9.3D-04,  7.7D-02, r^2= 5.5D+00
   Bfn.  Coefficient  Atom+Function         Bfn.  Coefficient  Atom+Function  
  ----- ------------  ---------------      ----- ------------  ---------------
    29      2.787537   2 C  s                10     -1.530691   1 N  s         
   154      0.840631   9 H  s               157      0.843890  10 H  s         
    30      0.658101   2 C  px              126      0.633480   7 C  py        
    69     -0.625677   4 C  py               86     -0.543275   5 C  s         
    87     -0.539168   5 C  px              158     -0.466687  10 H  s         

 Vector   54  Occ=0.000000D+00  E= 5.384576D-01
              MO Center= -1.3D-01,  3.5D-03, -1.2D-01, r^2= 5.9D+00
   Bfn.  Coefficient  Atom+Function         Bfn.  Coefficient  Atom+Function  
  ----- ------------  ---------------      ----- ------------  ---------------
    31      2.885714   2 C  py               49     -1.779953   3 C  px        
    68     -1.780351   4 C  px              125      1.778148   7 C  px        
   144      1.778926   8 C  px               48     -1.632365   3 C  s         
   143      1.622287   8 C  s                88     -1.588742   5 C  py        
    50      1.306116   3 C  py              145      1.291578   8 C  py        

 Vector   55  Occ=0.000000D+00  E= 5.424421D-01
              MO Center=  1.9D-02, -8.0D-03,  7.6D-02, r^2= 5.2D+00
   Bfn.  Coefficient  Atom+Function         Bfn.  Coefficient  Atom+Function  
  ----- ------------  ---------------      ----- ------------  ---------------
    48      0.644700   3 C  s               143     -0.639193   8 C  s         
   127     -0.523321   7 C  pz               70      0.515163   4 C  pz        
    51      0.463372   3 C  pz              146     -0.460611   8 C  pz        
    49      0.453039   3 C  px              144     -0.445562   8 C  px        
   123      0.403172   7 C  pz               66     -0.400353   4 C  pz        

 Vector   56  Occ=0.000000D+00  E= 5.665873D-01
              MO Center= -6.7D-03, -4.8D-03,  1.3D-02, r^2= 6.0D+00
   Bfn.  Coefficient  Atom+Function         Bfn.  Coefficient  Atom+Function  
  ----- ------------  ---------------      ----- ------------  ---------------
    89      0.609802   5 C  pz              167      0.443067  13 H  s         
    70      0.422709   4 C  pz              127      0.424751   7 C  pz        
    32     -0.415882   2 C  pz              146     -0.410959   8 C  pz        
    51     -0.403447   3 C  pz               85     -0.404959   5 C  pz        
    29     -0.363294   2 C  s                28      0.347640   2 C  pz        

 Vector   57  Occ=0.000000D+00  E= 5.933366D-01
              MO Center=  1.1D+00,  5.8D-05, -2.4D-02, r^2= 5.6D+00
   Bfn.  Coefficient  Atom+Function         Bfn.  Coefficient  Atom+Function  
  ----- ------------  ---------------      ----- ------------  ---------------
    29      1.036547   2 C  s                30      1.017479   2 C  px        
    86     -0.923351   5 C  s                48     -0.716233   3 C  s         
   164      0.715200  12 H  s               170      0.715026  14 H  s         
   143     -0.702115   8 C  s                26     -0.652725   2 C  px        
    68      0.643446   4 C  px              125      0.637957   7 C  px        

 Vector   58  Occ=0.000000D+00  E= 6.006143D-01
              MO Center=  8.6D-01,  3.6D-03,  2.1D-01, r^2= 6.6D+00
   Bfn.  Coefficient  Atom+Function         Bfn.  Coefficient  Atom+Function  
  ----- ------------  ---------------      ----- ------------  ---------------
    31      1.765386   2 C  py               48     -1.695492   3 C  s         
   143      1.667984   8 C  s                12     -0.952000   1 N  py        
    88      0.906644   5 C  py              154      0.800137   9 H  s         
   157     -0.801506  10 H  s               155     -0.759448   9 H  s         
   158      0.760253  10 H  s                70     -0.713844   4 C  pz        

 Vector   59  Occ=0.000000D+00  E= 6.169350D-01
              MO Center= -8.7D-01, -2.0D-03,  1.6D-01, r^2= 5.1D+00
   Bfn.  Coefficient  Atom+Function         Bfn.  Coefficient  Atom+Function  
  ----- ------------  ---------------      ----- ------------  ---------------
    87      1.281728   5 C  px               29      0.758857   2 C  s         
    83     -0.650555   5 C  px               49      0.645638   3 C  px        
    86     -0.639950   5 C  s                30     -0.590687   2 C  px        
   173     -0.577863  15 H  s               161     -0.573206  11 H  s         
   105      0.525497   6 O  s               144      0.511963   8 C  px        

 Vector   60  Occ=0.000000D+00  E= 6.264034D-01
              MO Center=  4.7D-01, -3.3D-03,  1.0D-01, r^2= 6.7D+00
   Bfn.  Coefficient  Atom+Function         Bfn.  Coefficient  Atom+Function  
  ----- ------------  ---------------      ----- ------------  ---------------
    88      2.520016   5 C  py              144     -2.530838   8 C  px        
    49      2.489993   3 C  px               31     -2.194478   2 C  py        
   125     -2.138002   7 C  px               68      2.098183   4 C  px        
    50     -0.963831   3 C  py              145     -0.929544   8 C  py        
    69      0.761135   4 C  py              126      0.757991   7 C  py        

 Vector   61  Occ=0.000000D+00  E= 6.452853D-01
              MO Center=  1.5D-02,  8.2D-04, -1.5D-01, r^2= 5.7D+00
   Bfn.  Coefficient  Atom+Function         Bfn.  Coefficient  Atom+Function  
  ----- ------------  ---------------      ----- ------------  ---------------
    89      1.251254   5 C  pz               32      1.211208   2 C  pz        
    30     -1.039599   2 C  px              143     -0.972432   8 C  s         
    29      0.954793   2 C  s                48     -0.953403   3 C  s         
    86     -0.866893   5 C  s                67      0.848260   4 C  s         
   124      0.841642   7 C  s                87     -0.724970   5 C  px        

 Vector   62  Occ=0.000000D+00  E= 6.602509D-01
              MO Center=  4.6D-01,  9.6D-04, -1.4D-01, r^2= 6.1D+00
   Bfn.  Coefficient  Atom+Function         Bfn.  Coefficient  Atom+Function  
  ----- ------------  ---------------      ----- ------------  ---------------
    31      4.897449   2 C  py               88     -3.702170   5 C  py        
    49     -3.539081   3 C  px              144      3.541897   8 C  px        
    68     -3.232406   4 C  px              125      3.227165   7 C  px        
    69     -1.791394   4 C  py              126     -1.798402   7 C  py        
    50      1.486830   3 C  py              145      1.478961   8 C  py        

 Vector   63  Occ=0.000000D+00  E= 6.849545D-01
              MO Center=  2.6D-01, -8.1D-03, -3.1D-02, r^2= 7.6D+00
   Bfn.  Coefficient  Atom+Function         Bfn.  Coefficient  Atom+Function  
  ----- ------------  ---------------      ----- ------------  ---------------
    31      2.088141   2 C  py              145      1.540595   8 C  py        
    50      1.529129   3 C  py               68     -1.075868   4 C  px        
   125      1.070205   7 C  px              173      0.945157  15 H  s         
   161     -0.937709  11 H  s               164     -0.886076  12 H  s         
   170      0.886791  14 H  s               124     -0.824910   7 C  s         

 Vector   64  Occ=0.000000D+00  E= 7.186716D-01
              MO Center= -6.8D-02, -7.5D-02,  5.8D-01, r^2= 6.8D+00
   Bfn.  Coefficient  Atom+Function         Bfn.  Coefficient  Atom+Function  
  ----- ------------  ---------------      ----- ------------  ---------------
    86     -4.284478   5 C  s                67      4.047068   4 C  s         
    87     -4.065516   5 C  px              124      4.053169   7 C  s         
   143     -3.831001   8 C  s                48     -3.775691   3 C  s         
    30     -3.622914   2 C  px              126      3.153140   7 C  py        
    29      2.996680   2 C  s                69     -2.902836   4 C  py        

 Vector   65  Occ=0.000000D+00  E= 7.202994D-01
              MO Center= -2.9D-01,  6.5D-02, -2.3D-02, r^2= 6.9D+00
   Bfn.  Coefficient  Atom+Function         Bfn.  Coefficient  Atom+Function  
  ----- ------------  ---------------      ----- ------------  ---------------
    31      3.278547   2 C  py               69     -2.885453   4 C  py        
    50      2.847376   3 C  py              126     -2.657630   7 C  py        
   145      2.630778   8 C  py               88     -2.535628   5 C  py        
   164      1.275420  12 H  s               144      1.214274   8 C  px        
   170     -1.197374  14 H  s               161     -1.096967  11 H  s         

 Vector   66  Occ=0.000000D+00  E= 7.323344D-01
              MO Center=  8.4D-01,  6.6D-03, -3.1D-01, r^2= 7.1D+00
   Bfn.  Coefficient  Atom+Function         Bfn.  Coefficient  Atom+Function  
  ----- ------------  ---------------      ----- ------------  ---------------
    30      5.112145   2 C  px               67     -3.907449   4 C  s         
   124     -3.913661   7 C  s                50     -3.499607   3 C  py        
    86      3.513883   5 C  s               145      3.504610   8 C  py        
    29     -3.094802   2 C  s                48      2.687308   3 C  s         
   143      2.697780   8 C  s                10     -2.558728   1 N  s         

 Vector   67  Occ=0.000000D+00  E= 7.382237D-01
              MO Center= -3.3D-01,  1.3D-02, -1.9D-01, r^2= 6.5D+00
   Bfn.  Coefficient  Atom+Function         Bfn.  Coefficient  Atom+Function  
  ----- ------------  ---------------      ----- ------------  ---------------
    86      2.506149   5 C  s                69      1.991589   4 C  py        
   126     -1.958382   7 C  py               48      1.738426   3 C  s         
   143      1.731685   8 C  s                87      1.633467   5 C  px        
   164     -1.136194  12 H  s               170     -1.116292  14 H  s         
    68     -1.017394   4 C  px              125     -1.016851   7 C  px        

 Vector   68  Occ=0.000000D+00  E= 7.508692D-01
              MO Center=  1.9D+00, -8.6D-04, -2.5D-01, r^2= 4.7D+00
   Bfn.  Coefficient  Atom+Function         Bfn.  Coefficient  Atom+Function  
  ----- ------------  ---------------      ----- ------------  ---------------
    32      1.800840   2 C  pz               13     -1.358177   1 N  pz        
    49      0.907988   3 C  px              144      0.902364   8 C  px        
    67      0.865136   4 C  s               124      0.868616   7 C  s         
    51     -0.835564   3 C  pz              146     -0.836086   8 C  pz        
    29     -0.765526   2 C  s                 9      0.628234   1 N  pz        

 Vector   69  Occ=0.000000D+00  E= 7.683078D-01
              MO Center=  1.6D+00,  2.3D-03,  4.2D-02, r^2= 6.0D+00
   Bfn.  Coefficient  Atom+Function         Bfn.  Coefficient  Atom+Function  
  ----- ------------  ---------------      ----- ------------  ---------------
    29      4.531019   2 C  s                30      3.350344   2 C  px        
    67     -2.253471   4 C  s               124     -2.227507   7 C  s         
    10     -2.147596   1 N  s                49     -1.994862   3 C  px        
   144     -2.003027   8 C  px               11      1.894768   1 N  px        
    86      1.356615   5 C  s                87     -0.739021   5 C  px        

 Vector   70  Occ=0.000000D+00  E= 8.192076D-01
              MO Center= -1.0D+00,  1.0D-02,  5.4D-02, r^2= 6.0D+00
   Bfn.  Coefficient  Atom+Function         Bfn.  Coefficient  Atom+Function  
  ----- ------------  ---------------      ----- ------------  ---------------
    86     -4.568836   5 C  s                48      4.386854   3 C  s         
   143      4.402646   8 C  s                68     -3.238117   4 C  px        
   125     -3.188966   7 C  px               87      2.514817   5 C  px        
    30      2.096461   2 C  px              105      1.816619   6 O  s         
   144     -1.376372   8 C  px               29     -1.366177   2 C  s         

 Vector   71  Occ=0.000000D+00  E= 8.373553D-01
              MO Center= -7.0D-01,  1.1D-03,  1.2D-01, r^2= 5.5D+00
   Bfn.  Coefficient  Atom+Function         Bfn.  Coefficient  Atom+Function  
  ----- ------------  ---------------      ----- ------------  ---------------
    86      5.778565   5 C  s                87      3.466101   5 C  px        
    29     -2.912089   2 C  s               126     -2.367770   7 C  py        
    69      2.327913   4 C  py              124     -2.122021   7 C  s         
    67     -2.108526   4 C  s               145      1.467474   8 C  py        
    50     -1.454364   3 C  py               30      1.274299   2 C  px        

 Vector   72  Occ=0.000000D+00  E= 8.534290D-01
              MO Center=  1.1D+00,  6.4D-04, -1.5D-01, r^2= 6.1D+00
   Bfn.  Coefficient  Atom+Function         Bfn.  Coefficient  Atom+Function  
  ----- ------------  ---------------      ----- ------------  ---------------
    31      5.327524   2 C  py              124      3.425670   7 C  s         
    67     -3.392903   4 C  s                49     -2.698815   3 C  px        
   144      2.684532   8 C  px               12     -2.265775   1 N  py        
   145      1.722562   8 C  py               50      1.708115   3 C  py        
   143      1.630216   8 C  s                48     -1.557554   3 C  s         

 Vector   73  Occ=0.000000D+00  E= 8.565069D-01
              MO Center=  7.0D-02, -1.4D-02, -8.3D-02, r^2= 6.1D+00
   Bfn.  Coefficient  Atom+Function         Bfn.  Coefficient  Atom+Function  
  ----- ------------  ---------------      ----- ------------  ---------------
    67      3.628532   4 C  s               124     -3.597066   7 C  s         
    88     -3.160633   5 C  py               69     -1.512624   4 C  py        
   126     -1.472435   7 C  py               12     -1.330941   1 N  py        
   145     -0.913503   8 C  py               50     -0.843113   3 C  py        
   120      0.688922   7 C  s                63     -0.672936   4 C  s         

 Vector   74  Occ=0.000000D+00  E= 8.829253D-01
              MO Center=  8.4D-01,  1.2D-03,  1.0D-01, r^2= 6.0D+00
   Bfn.  Coefficient  Atom+Function         Bfn.  Coefficient  Atom+Function  
  ----- ------------  ---------------      ----- ------------  ---------------
    48      8.467723   3 C  s               143     -8.468976   8 C  s         
    31     -7.338065   2 C  py               88     -2.657373   5 C  py        
    12      2.293895   1 N  py               68     -2.080657   4 C  px        
   125      2.033390   7 C  px               69     -1.242737   4 C  py        
   126     -1.232078   7 C  py              144     -1.091203   8 C  px        

 Vector   75  Occ=0.000000D+00  E= 8.847175D-01
              MO Center=  1.1D+00,  4.5D-03,  1.0D-01, r^2= 8.2D+00
   Bfn.  Coefficient  Atom+Function         Bfn.  Coefficient  Atom+Function  
  ----- ------------  ---------------      ----- ------------  ---------------
    29      5.310627   2 C  s                67     -2.981048   4 C  s         
   124     -2.928142   7 C  s                30     -2.389371   2 C  px        
    50      2.332216   3 C  py              145     -2.283178   8 C  py        
    49     -1.818801   3 C  px              144     -1.752063   8 C  px        
    11     -1.630258   1 N  px               87      1.628906   5 C  px        

 Vector   76  Occ=0.000000D+00  E= 9.038970D-01
              MO Center=  3.4D-02,  1.0D-04,  3.2D-02, r^2= 5.4D+00
   Bfn.  Coefficient  Atom+Function         Bfn.  Coefficient  Atom+Function  
  ----- ------------  ---------------      ----- ------------  ---------------
    50      3.135664   3 C  py              145     -3.127372   8 C  py        
    69     -3.023375   4 C  py              126      3.024148   7 C  py        
    86     -2.756547   5 C  s                29      2.410896   2 C  s         
   160     -1.127060  11 H  s               172     -1.128443  15 H  s         
   163      1.030328  12 H  s               169      1.030363  14 H  s         

 Vector   77  Occ=0.000000D+00  E= 9.357227D-01
              MO Center= -5.4D-01,  1.1D-03, -3.6D-02, r^2= 7.3D+00
   Bfn.  Coefficient  Atom+Function         Bfn.  Coefficient  Atom+Function  
  ----- ------------  ---------------      ----- ------------  ---------------
    86      3.016777   5 C  s                30     -2.437899   2 C  px        
    49      1.462152   3 C  px              144      1.446957   8 C  px        
   143     -1.358659   8 C  s                48     -1.322430   3 C  s         
    29      1.185378   2 C  s                69      0.993802   4 C  py        
   126     -0.992230   7 C  py              106      0.884193   6 O  px        

 Vector   78  Occ=0.000000D+00  E= 9.753603D-01
              MO Center= -2.1D-01,  2.8D-03, -6.0D-02, r^2= 6.4D+00
   Bfn.  Coefficient  Atom+Function         Bfn.  Coefficient  Atom+Function  
  ----- ------------  ---------------      ----- ------------  ---------------
    88      7.299279   5 C  py              124      5.487894   7 C  s         
    67     -5.423251   4 C  s                68      4.267261   4 C  px        
   125     -4.216461   7 C  px               48     -3.134552   3 C  s         
   143      3.084507   8 C  s                31      2.129108   2 C  py        
   144      1.494457   8 C  px               49     -1.471981   3 C  px        

 Vector   79  Occ=0.000000D+00  E= 1.006538D+00
              MO Center= -6.7D-02,  2.3D-02, -3.0D-02, r^2= 7.5D+00
   Bfn.  Coefficient  Atom+Function         Bfn.  Coefficient  Atom+Function  
  ----- ------------  ---------------      ----- ------------  ---------------
    31      8.416510   2 C  py               88     -6.269616   5 C  py        
    49     -5.987120   3 C  px              144      5.909103   8 C  px        
    68     -5.105212   4 C  px              125      4.911680   7 C  px        
    50      3.380783   3 C  py              145      3.352960   8 C  py        
   126     -3.275406   7 C  py               69     -3.172639   4 C  py        

 Vector   80  Occ=0.000000D+00  E= 1.022942D+00
              MO Center= -1.9D+00, -2.8D-02,  2.0D-02, r^2= 3.8D+00
   Bfn.  Coefficient  Atom+Function         Bfn.  Coefficient  Atom+Function  
  ----- ------------  ---------------      ----- ------------  ---------------
    87      2.347045   5 C  px              125     -2.145963   7 C  px        
    67     -2.093714   4 C  s                48      1.817559   3 C  s         
   124     -1.648831   7 C  s               143      1.613321   8 C  s         
   108      1.528886   6 O  pz              144     -1.266175   8 C  px        
    68     -1.196832   4 C  px              106      0.968840   6 O  px        

 Vector   81  Occ=0.000000D+00  E= 1.041240D+00
              MO Center= -9.1D-01,  1.5D-02, -2.7D-03, r^2= 6.8D+00
   Bfn.  Coefficient  Atom+Function         Bfn.  Coefficient  Atom+Function  
  ----- ------------  ---------------      ----- ------------  ---------------
    88      5.591316   5 C  py              125     -3.930986   7 C  px        
    68      3.861419   4 C  px               49      3.174935   3 C  px        
   144     -3.052918   8 C  px               50      2.823618   3 C  py        
   145      2.596238   8 C  py               48     -2.391823   3 C  s         
   143      2.093809   8 C  s                31     -1.933145   2 C  py        

 Vector   82  Occ=0.000000D+00  E= 1.045609D+00
              MO Center= -6.1D-01, -1.0D-02,  1.9D-02, r^2= 6.5D+00
   Bfn.  Coefficient  Atom+Function         Bfn.  Coefficient  Atom+Function  
  ----- ------------  ---------------      ----- ------------  ---------------
    29      6.390173   2 C  s                30     -4.078043   2 C  px        
    86      3.980107   5 C  s                87      3.663646   5 C  px        
   145     -2.539257   8 C  py              143     -2.523487   8 C  s         
    48     -2.242684   3 C  s                50      2.240383   3 C  py        
    68     -1.639297   4 C  px              124     -1.592916   7 C  s         

 Vector   83  Occ=0.000000D+00  E= 1.095127D+00
              MO Center= -1.3D-01, -5.4D-05, -4.3D-02, r^2= 3.6D+00
   Bfn.  Coefficient  Atom+Function         Bfn.  Coefficient  Atom+Function  
  ----- ------------  ---------------      ----- ------------  ---------------
    67      2.880991   4 C  s               124     -2.884719   7 C  s         
    69     -2.191411   4 C  py              126     -2.187100   7 C  py        
    48     -1.902603   3 C  s               143      1.901953   8 C  s         
    50      1.746714   3 C  py              145      1.740595   8 C  py        
    88     -1.637137   5 C  py               49      0.571321   3 C  px        

 Vector   84  Occ=0.000000D+00  E= 1.131168D+00
              MO Center= -9.6D-01, -5.6D-04,  6.6D-02, r^2= 5.9D+00
   Bfn.  Coefficient  Atom+Function         Bfn.  Coefficient  Atom+Function  
  ----- ------------  ---------------      ----- ------------  ---------------
    67      7.946227   4 C  s               124     -7.970530   7 C  s         
    88     -7.021101   5 C  py               48     -5.640735   3 C  s         
   143      5.623613   8 C  s                69     -5.067186   4 C  py        
   126     -5.092377   7 C  py               50      4.602651   3 C  py        
   145      4.584451   8 C  py               31      4.249738   2 C  py        

 Vector   85  Occ=0.000000D+00  E= 1.185114D+00
              MO Center=  2.0D-01,  3.6D-03, -2.0D-02, r^2= 4.3D+00
   Bfn.  Coefficient  Atom+Function         Bfn.  Coefficient  Atom+Function  
  ----- ------------  ---------------      ----- ------------  ---------------
    86      2.636963   5 C  s                67     -1.359710   4 C  s         
    30     -1.211737   2 C  px              124     -1.182754   7 C  s         
    10      1.170708   1 N  s                29     -0.984525   2 C  s         
    69      0.984536   4 C  py              108     -0.897205   6 O  pz        
   126     -0.894337   7 C  py               35      0.735737   2 C  dxz       

 Vector   86  Occ=0.000000D+00  E= 1.222587D+00
              MO Center=  7.1D-01, -1.3D-03, -3.7D-02, r^2= 6.1D+00
   Bfn.  Coefficient  Atom+Function         Bfn.  Coefficient  Atom+Function  
  ----- ------------  ---------------      ----- ------------  ---------------
    48     14.113062   3 C  s               143     14.107095   8 C  s         
    30     13.111067   2 C  px               29    -12.296522   2 C  s         
    67    -12.063233   4 C  s               124    -12.069005   7 C  s         
    86     10.880778   5 C  s                10     -7.932164   1 N  s         
    50     -7.209053   3 C  py              145      7.225334   8 C  py        

 Vector   87  Occ=0.000000D+00  E= 1.257486D+00
              MO Center=  2.3D-01, -8.1D-04, -1.9D-02, r^2= 6.3D+00
   Bfn.  Coefficient  Atom+Function         Bfn.  Coefficient  Atom+Function  
  ----- ------------  ---------------      ----- ------------  ---------------
    86    -15.060203   5 C  s                29     14.452401   2 C  s         
    67     13.843482   4 C  s               124     13.864004   7 C  s         
    48    -12.986922   3 C  s               143    -12.976496   8 C  s         
    87     -7.917842   5 C  px               69     -7.006199   4 C  py        
   126      7.004105   7 C  py               50      5.378549   3 C  py        

 Vector   88  Occ=0.000000D+00  E= 1.290540D+00
              MO Center=  2.7D-02,  1.8D-03,  1.2D-02, r^2= 2.7D+00
   Bfn.  Coefficient  Atom+Function         Bfn.  Coefficient  Atom+Function  
  ----- ------------  ---------------      ----- ------------  ---------------
    56      0.687847   3 C  dyz             151      0.688041   8 C  dyz       
    75      0.639912   4 C  dyz             132      0.640095   7 C  dyz       
    73     -0.432807   4 C  dxz             130      0.431577   7 C  dxz       
    54      0.418321   3 C  dxz             149     -0.414528   8 C  dxz       
   126      0.245201   7 C  py               48      0.237318   3 C  s         

 Vector   89  Occ=0.000000D+00  E= 1.311378D+00
              MO Center=  5.7D-01,  6.2D-02,  7.8D-03, r^2= 3.5D+00
   Bfn.  Coefficient  Atom+Function         Bfn.  Coefficient  Atom+Function  
  ----- ------------  ---------------      ----- ------------  ---------------
    29      3.544040   2 C  s                86     -2.911815   5 C  s         
    48     -2.193351   3 C  s                67      2.040917   4 C  s         
   124      2.032562   7 C  s               143     -2.020410   8 C  s         
    10     -1.471812   1 N  s                69     -1.301958   4 C  py        
   126      1.273042   7 C  py               50      1.251842   3 C  py        

 Vector   90  Occ=0.000000D+00  E= 1.313911D+00
              MO Center= -2.0D-02, -5.7D-02,  1.4D-02, r^2= 2.9D+00
   Bfn.  Coefficient  Atom+Function         Bfn.  Coefficient  Atom+Function  
  ----- ------------  ---------------      ----- ------------  ---------------
   143      1.060270   8 C  s                37     -0.792019   2 C  dyz       
    94      0.789459   5 C  dyz              31      0.677975   2 C  py        
   132     -0.533958   7 C  dyz              75     -0.490081   4 C  dyz       
   151      0.486722   8 C  dyz              29     -0.477937   2 C  s         
    48     -0.464623   3 C  s               145      0.446821   8 C  py        

 Vector   91  Occ=0.000000D+00  E= 1.378558D+00
              MO Center= -1.1D+00, -8.9D-03,  5.3D-02, r^2= 3.4D+00
   Bfn.  Coefficient  Atom+Function         Bfn.  Coefficient  Atom+Function  
  ----- ------------  ---------------      ----- ------------  ---------------
   124     -2.645069   7 C  s                67     -2.600020   4 C  s         
   143      2.585026   8 C  s                48      2.569890   3 C  s         
    29     -2.317448   2 C  s                86      1.967654   5 C  s         
    87      1.935966   5 C  px              125     -1.653424   7 C  px        
    68     -1.631158   4 C  px               10      1.533057   1 N  s         

 Vector   92  Occ=0.000000D+00  E= 1.427602D+00
              MO Center=  8.0D-01, -7.5D-04, -1.0D-02, r^2= 4.7D+00
   Bfn.  Coefficient  Atom+Function         Bfn.  Coefficient  Atom+Function  
  ----- ------------  ---------------      ----- ------------  ---------------
    10      5.887334   1 N  s                30     -5.789443   2 C  px        
    48     -3.587038   3 C  s               143     -3.597324   8 C  s         
    67      2.334596   4 C  s               124      2.343444   7 C  s         
    87     -2.186124   5 C  px               11     -1.892548   1 N  px        
    49      1.471309   3 C  px              144      1.475210   8 C  px        

 Vector   93  Occ=0.000000D+00  E= 1.527688D+00
              MO Center=  1.7D-03, -1.8D-01,  6.2D-03, r^2= 4.0D+00
   Bfn.  Coefficient  Atom+Function         Bfn.  Coefficient  Atom+Function  
  ----- ------------  ---------------      ----- ------------  ---------------
   124      2.169082   7 C  s                48     -2.125976   3 C  s         
    31      2.086943   2 C  py               88      1.868485   5 C  py        
   143      1.270399   8 C  s                87     -1.090983   5 C  px        
   105     -1.021264   6 O  s                67     -0.818822   4 C  s         
    68      0.790607   4 C  px              169     -0.753473  14 H  s         

 Vector   94  Occ=0.000000D+00  E= 1.528404D+00
              MO Center= -1.1D+00,  1.8D-01,  9.7D-02, r^2= 4.2D+00
   Bfn.  Coefficient  Atom+Function         Bfn.  Coefficient  Atom+Function  
  ----- ------------  ---------------      ----- ------------  ---------------
    87      4.343172   5 C  px              105      4.005820   6 O  s         
    67     -3.071987   4 C  s               124     -2.347509   7 C  s         
   143      2.183387   8 C  s               106      1.347730   6 O  px        
   125     -1.311485   7 C  px               48      1.290395   3 C  s         
    30      1.195617   2 C  px               10     -1.169429   1 N  s         

 Vector   95  Occ=0.000000D+00  E= 1.557827D+00
              MO Center= -2.0D-02, -1.4D-03,  5.3D-03, r^2= 3.9D+00
   Bfn.  Coefficient  Atom+Function         Bfn.  Coefficient  Atom+Function  
  ----- ------------  ---------------      ----- ------------  ---------------
   163      0.688560  12 H  s               169     -0.688453  14 H  s         
   160      0.673829  11 H  s               172     -0.673868  15 H  s         
    74     -0.459385   4 C  dyy             131      0.460189   7 C  dyy       
    55     -0.456163   3 C  dyy             150      0.456267   8 C  dyy       
   144      0.434525   8 C  px               48     -0.429444   3 C  s         

 Vector   96  Occ=0.000000D+00  E= 1.593770D+00
              MO Center= -8.2D-01,  1.4D-03,  6.6D-02, r^2= 4.4D+00
   Bfn.  Coefficient  Atom+Function         Bfn.  Coefficient  Atom+Function  
  ----- ------------  ---------------      ----- ------------  ---------------
   105      3.905464   6 O  s                87      3.300468   5 C  px        
    30     -1.407647   2 C  px              106      1.347445   6 O  px        
    10      1.146821   1 N  s               101     -1.006186   6 O  s         
    50      0.988865   3 C  py              145     -0.979041   8 C  py        
   124     -0.964214   7 C  s                67     -0.926620   4 C  s         

 Vector   97  Occ=0.000000D+00  E= 1.685876D+00
              MO Center= -1.4D-01, -9.4D-04,  2.6D-02, r^2= 3.9D+00
   Bfn.  Coefficient  Atom+Function         Bfn.  Coefficient  Atom+Function  
  ----- ------------  ---------------      ----- ------------  ---------------
    86     -5.445819   5 C  s                29      5.185697   2 C  s         
    67      4.831733   4 C  s               124      4.843113   7 C  s         
    48     -4.649468   3 C  s               143     -4.646022   8 C  s         
    87     -4.428780   5 C  px               30     -3.631408   2 C  px        
    69     -3.128988   4 C  py              126      3.135401   7 C  py        

 Vector   98  Occ=0.000000D+00  E= 1.729979D+00
              MO Center=  1.8D-01,  2.7D-05,  2.2D-03, r^2= 4.5D+00
   Bfn.  Coefficient  Atom+Function         Bfn.  Coefficient  Atom+Function  
  ----- ------------  ---------------      ----- ------------  ---------------
    31      2.142211   2 C  py               88     -1.863503   5 C  py        
    69     -0.899310   4 C  py              126     -0.887829   7 C  py        
    50      0.859577   3 C  py              145      0.849418   8 C  py        
    34     -0.823056   2 C  dxy              48     -0.791295   3 C  s         
    91     -0.766555   5 C  dxy             143      0.762663   8 C  s         

 Vector   99  Occ=0.000000D+00  E= 1.784553D+00
              MO Center=  4.5D-01, -1.3D-03, -5.2D-02, r^2= 3.9D+00
   Bfn.  Coefficient  Atom+Function         Bfn.  Coefficient  Atom+Function  
  ----- ------------  ---------------      ----- ------------  ---------------
    92     -0.805664   5 C  dxz              56     -0.781616   3 C  dyz       
   151      0.780354   8 C  dyz              35      0.747437   2 C  dxz       
    32     -0.643581   2 C  pz               10     -0.578854   1 N  s         
    16     -0.507638   1 N  dxz              75     -0.478738   4 C  dyz       
   132      0.477026   7 C  dyz              86      0.440884   5 C  s         

 Vector  100  Occ=0.000000D+00  E= 1.800230D+00
              MO Center= -2.4D-03, -9.4D-04,  3.1D-02, r^2= 3.6D+00
   Bfn.  Coefficient  Atom+Function         Bfn.  Coefficient  Atom+Function  
  ----- ------------  ---------------      ----- ------------  ---------------
    87      1.447543   5 C  px               67     -1.195337   4 C  s         
   124     -1.195629   7 C  s                86      1.141948   5 C  s         
   125     -0.922009   7 C  px               68     -0.909299   4 C  px        
   143      0.847542   8 C  s                48      0.843219   3 C  s         
    29     -0.663978   2 C  s               105      0.558862   6 O  s         

 Vector  101  Occ=0.000000D+00  E= 1.842007D+00
              MO Center=  1.7D-01, -1.7D-02, -1.6D-02, r^2= 3.7D+00
   Bfn.  Coefficient  Atom+Function         Bfn.  Coefficient  Atom+Function  
  ----- ------------  ---------------      ----- ------------  ---------------
    30      2.056028   2 C  px               29     -1.823785   2 C  s         
    86      1.644661   5 C  s                10     -1.335507   1 N  s         
    87      1.297260   5 C  px               48      0.812633   3 C  s         
    95     -0.686733   5 C  dzz              38      0.669414   2 C  dzz       
   143      0.666562   8 C  s                67     -0.534578   4 C  s         

 Vector  102  Occ=0.000000D+00  E= 1.842225D+00
              MO Center=  3.5D-01,  7.3D-04, -2.3D-02, r^2= 4.0D+00
   Bfn.  Coefficient  Atom+Function         Bfn.  Coefficient  Atom+Function  
  ----- ------------  ---------------      ----- ------------  ---------------
    31      1.180375   2 C  py              124     -1.030312   7 C  s         
    67      0.938178   4 C  s               144      0.843422   8 C  px        
    49     -0.828308   3 C  px               88     -0.826745   5 C  py        
    69     -0.680788   4 C  py              126     -0.674160   7 C  py        
   143      0.549802   8 C  s                76     -0.490161   4 C  dzz       

 Vector  103  Occ=0.000000D+00  E= 1.842676D+00
              MO Center=  2.9D-01,  1.6D-02,  3.2D-02, r^2= 3.7D+00
   Bfn.  Coefficient  Atom+Function         Bfn.  Coefficient  Atom+Function  
  ----- ------------  ---------------      ----- ------------  ---------------
   124     -0.689114   7 C  s                31      0.656123   2 C  py        
   144      0.625238   8 C  px               49     -0.621111   3 C  px        
    56      0.615239   3 C  dyz              67      0.614100   4 C  s         
   151      0.600880   8 C  dyz              88     -0.554411   5 C  py        
    73      0.549185   4 C  dxz              75     -0.545370   4 C  dyz       

 Vector  104  Occ=0.000000D+00  E= 1.939896D+00
              MO Center=  6.3D-01,  2.3D-03,  1.4D-02, r^2= 5.2D+00
   Bfn.  Coefficient  Atom+Function         Bfn.  Coefficient  Atom+Function  
  ----- ------------  ---------------      ----- ------------  ---------------
    31      2.939133   2 C  py               48     -2.809016   3 C  s         
   143      2.799760   8 C  s                88     -1.185477   5 C  py        
    50      1.005464   3 C  py              145      1.009193   8 C  py        
   144      0.885802   8 C  px               49     -0.879005   3 C  px        
   163     -0.750300  12 H  s               169      0.746322  14 H  s         

 Vector  105  Occ=0.000000D+00  E= 1.953141D+00
              MO Center=  2.3D-01,  6.9D-03, -1.9D-02, r^2= 3.7D+00
   Bfn.  Coefficient  Atom+Function         Bfn.  Coefficient  Atom+Function  
  ----- ------------  ---------------      ----- ------------  ---------------
    31      2.184255   2 C  py               48     -1.843592   3 C  s         
   143      1.785145   8 C  s                94     -1.163944   5 C  dyz       
    37     -1.117166   2 C  dyz              88     -0.797381   5 C  py        
    12     -0.720764   1 N  py               67      0.715663   4 C  s         
   124     -0.627871   7 C  s                50      0.609077   3 C  py        

 Vector  106  Occ=0.000000D+00  E= 1.962275D+00
              MO Center=  2.6D-01, -6.2D-03, -5.6D-03, r^2= 5.7D+00
   Bfn.  Coefficient  Atom+Function         Bfn.  Coefficient  Atom+Function  
  ----- ------------  ---------------      ----- ------------  ---------------
   124      1.224509   7 C  s                67      1.163161   4 C  s         
    87     -1.025868   5 C  px               10      0.971113   1 N  s         
   143     -0.915017   8 C  s                92     -0.874043   5 C  dxz       
    86     -0.829486   5 C  s               132      0.816483   7 C  dyz       
   154     -0.819587   9 H  s               157     -0.792576  10 H  s         

 Vector  107  Occ=0.000000D+00  E= 2.000330D+00
              MO Center=  5.8D-01, -7.3D-05,  6.6D-03, r^2= 4.5D+00
   Bfn.  Coefficient  Atom+Function         Bfn.  Coefficient  Atom+Function  
  ----- ------------  ---------------      ----- ------------  ---------------
    73      0.973647   4 C  dxz             130      0.972927   7 C  dxz       
    54      0.952543   3 C  dxz             149      0.953660   8 C  dxz       
   154      0.744200   9 H  s               157      0.741519  10 H  s         
    48      0.530213   3 C  s               143      0.522916   8 C  s         
    10     -0.475609   1 N  s                29     -0.470837   2 C  s         

 Vector  108  Occ=0.000000D+00  E= 2.013609D+00
              MO Center=  1.2D+00, -5.1D-03,  5.2D-02, r^2= 5.1D+00
   Bfn.  Coefficient  Atom+Function         Bfn.  Coefficient  Atom+Function  
  ----- ------------  ---------------      ----- ------------  ---------------
   157      1.042911  10 H  s               154      1.023439   9 H  s         
    10     -0.776557   1 N  s                86     -0.603958   5 C  s         
    29     -0.579003   2 C  s                17     -0.548897   1 N  dyy       
    56      0.547561   3 C  dyz             151     -0.547607   8 C  dyz       
    48      0.541266   3 C  s                87     -0.541043   5 C  px        

 Vector  109  Occ=0.000000D+00  E= 2.028304D+00
              MO Center=  1.0D+00,  4.8D-03,  2.3D-02, r^2= 5.7D+00
   Bfn.  Coefficient  Atom+Function         Bfn.  Coefficient  Atom+Function  
  ----- ------------  ---------------      ----- ------------  ---------------
    67      2.920490   4 C  s               124     -2.901139   7 C  s         
    88     -1.954025   5 C  py              154      1.112251   9 H  s         
   157     -1.103478  10 H  s                49      0.954059   3 C  px        
   144     -0.952870   8 C  px               91     -0.883094   5 C  dxy       
    50     -0.609488   3 C  py              145     -0.593960   8 C  py        

 Vector  110  Occ=0.000000D+00  E= 2.069571D+00
              MO Center= -9.6D-01,  1.1D-04, -8.3D-02, r^2= 4.4D+00
   Bfn.  Coefficient  Atom+Function         Bfn.  Coefficient  Atom+Function  
  ----- ------------  ---------------      ----- ------------  ---------------
    29      2.748288   2 C  s                86      2.502823   5 C  s         
    67     -1.331038   4 C  s               124     -1.311543   7 C  s         
    48     -1.136332   3 C  s               143     -1.090506   8 C  s         
    50      0.807179   3 C  py              145     -0.805378   8 C  py        
   163      0.764321  12 H  s               169      0.767841  14 H  s         

 Vector  111  Occ=0.000000D+00  E= 2.091728D+00
              MO Center=  7.4D-01, -4.1D-03, -5.4D-02, r^2= 4.3D+00
   Bfn.  Coefficient  Atom+Function         Bfn.  Coefficient  Atom+Function  
  ----- ------------  ---------------      ----- ------------  ---------------
    29      2.124871   2 C  s                86      1.202426   5 C  s         
   160      1.089748  11 H  s               172      1.090163  15 H  s         
   143     -0.954653   8 C  s                48     -0.923103   3 C  s         
    87      0.835240   5 C  px              126     -0.779362   7 C  py        
    69      0.767602   4 C  py               38     -0.690505   2 C  dzz       

 Vector  112  Occ=0.000000D+00  E= 2.123977D+00
              MO Center=  1.5D+00, -2.9D-03, -4.1D-02, r^2= 4.5D+00
   Bfn.  Coefficient  Atom+Function         Bfn.  Coefficient  Atom+Function  
  ----- ------------  ---------------      ----- ------------  ---------------
    31      3.096909   2 C  py              143      1.921615   8 C  s         
    48     -1.909603   3 C  s                67     -1.762835   4 C  s         
   124      1.760906   7 C  s                88      1.506204   5 C  py        
    12     -1.180748   1 N  py               18     -1.158311   1 N  dyz       
    49     -1.093711   3 C  px              144      1.089847   8 C  px        

 Vector  113  Occ=0.000000D+00  E= 2.202993D+00
              MO Center= -2.5D+00, -8.7D-03, -4.5D-01, r^2= 3.1D+00
   Bfn.  Coefficient  Atom+Function         Bfn.  Coefficient  Atom+Function  
  ----- ------------  ---------------      ----- ------------  ---------------
   166      2.173307  13 H  s                86     -1.672171   5 C  s         
    87      1.443092   5 C  px              143      1.396702   8 C  s         
    48      1.286391   3 C  s                29     -1.268855   2 C  s         
   165     -1.152662  13 H  s               125     -1.045747   7 C  px        
   105      0.986405   6 O  s                68     -0.955981   4 C  px        

 Vector  114  Occ=0.000000D+00  E= 2.260379D+00
              MO Center=  9.0D-01, -8.8D-02, -8.3D-03, r^2= 4.9D+00
   Bfn.  Coefficient  Atom+Function         Bfn.  Coefficient  Atom+Function  
  ----- ------------  ---------------      ----- ------------  ---------------
    30      2.173590   2 C  px              143      2.151475   8 C  s         
    86     -1.455150   5 C  s                48      1.413622   3 C  s         
    10     -1.311929   1 N  s                29     -1.170860   2 C  s         
   144     -1.131467   8 C  px               87     -0.973963   5 C  px        
    49     -0.871176   3 C  px              145      0.721049   8 C  py        

 Vector  115  Occ=0.000000D+00  E= 2.261394D+00
              MO Center= -3.6D-01,  9.4D-02,  2.3D-02, r^2= 4.0D+00
   Bfn.  Coefficient  Atom+Function         Bfn.  Coefficient  Atom+Function  
  ----- ------------  ---------------      ----- ------------  ---------------
    48      3.016644   3 C  s               143     -2.504248   8 C  s         
    68     -1.944076   4 C  px               88     -1.882641   5 C  py        
   125      1.829727   7 C  px               49     -1.110292   3 C  px        
    91     -1.087947   5 C  dxy              67     -0.894830   4 C  s         
   124      0.852645   7 C  s               144      0.824647   8 C  px        

 Vector  116  Occ=0.000000D+00  E= 2.306360D+00
              MO Center= -6.3D-03, -1.7D-03,  1.2D-03, r^2= 3.9D+00
   Bfn.  Coefficient  Atom+Function         Bfn.  Coefficient  Atom+Function  
  ----- ------------  ---------------      ----- ------------  ---------------
    29      2.584775   2 C  s               124     -2.084693   7 C  s         
    67     -2.059049   4 C  s               125     -1.857303   7 C  px        
    68     -1.827473   4 C  px               87      1.578368   5 C  px        
   144     -1.354954   8 C  px               49     -1.347571   3 C  px        
    50      0.969577   3 C  py              145     -0.939208   8 C  py        

 Vector  117  Occ=0.000000D+00  E= 2.363877D+00
              MO Center=  1.3D+00, -3.3D-03, -3.0D-02, r^2= 4.1D+00
   Bfn.  Coefficient  Atom+Function         Bfn.  Coefficient  Atom+Function  
  ----- ------------  ---------------      ----- ------------  ---------------
    86      2.889609   5 C  s                87      1.267034   5 C  px        
    30     -1.216328   2 C  px              124     -1.086531   7 C  s         
    67     -1.073392   4 C  s               126     -1.070947   7 C  py        
    69      1.060972   4 C  py               16      0.945309   1 N  dxz       
    35      0.820194   2 C  dxz              49      0.688385   3 C  px        

 Vector  118  Occ=0.000000D+00  E= 2.391139D+00
              MO Center=  6.8D-02, -2.2D-03,  1.4D-02, r^2= 3.9D+00
   Bfn.  Coefficient  Atom+Function         Bfn.  Coefficient  Atom+Function  
  ----- ------------  ---------------      ----- ------------  ---------------
    48      2.191683   3 C  s               143     -2.187363   8 C  s         
    67     -2.011547   4 C  s               124      1.991111   7 C  s         
    31     -1.596622   2 C  py               88      1.358360   5 C  py        
   145     -1.294633   8 C  py               69      1.281456   4 C  py        
   126      1.282222   7 C  py               50     -1.273396   3 C  py        

 Vector  119  Occ=0.000000D+00  E= 2.393264D+00
              MO Center= -7.1D-02,  3.1D-03,  1.1D-02, r^2= 5.1D+00
   Bfn.  Coefficient  Atom+Function         Bfn.  Coefficient  Atom+Function  
  ----- ------------  ---------------      ----- ------------  ---------------
    31      1.178008   2 C  py              163      1.022004  12 H  s         
   169     -1.016710  14 H  s                48     -0.949899   3 C  s         
   143      0.943570   8 C  s               160      0.878427  11 H  s         
   172     -0.877206  15 H  s               162     -0.604725  12 H  s         
   168      0.602953  14 H  s               159     -0.555757  11 H  s         

 Vector  120  Occ=0.000000D+00  E= 2.451151D+00
              MO Center=  1.6D-02, -2.2D-03, -1.5D-02, r^2= 4.2D+00
   Bfn.  Coefficient  Atom+Function         Bfn.  Coefficient  Atom+Function  
  ----- ------------  ---------------      ----- ------------  ---------------
    88     -4.706823   5 C  py               31      4.313335   2 C  py        
    67      4.207900   4 C  s               124     -4.201512   7 C  s         
    48     -3.930791   3 C  s               143      3.920301   8 C  s         
    69     -3.202491   4 C  py              126     -3.205002   7 C  py        
    50      3.113955   3 C  py              145      3.114370   8 C  py        

 Vector  121  Occ=0.000000D+00  E= 2.526307D+00
              MO Center=  1.8D+00, -9.7D-04, -1.3D-01, r^2= 3.0D+00
   Bfn.  Coefficient  Atom+Function         Bfn.  Coefficient  Atom+Function  
  ----- ------------  ---------------      ----- ------------  ---------------
    86      3.061386   5 C  s                67     -2.488465   4 C  s         
   124     -2.492794   7 C  s                48      2.332977   3 C  s         
   143      2.332817   8 C  s                30      2.109545   2 C  px        
    10     -1.764752   1 N  s                29     -1.382029   2 C  s         
    87      1.296314   5 C  px               69      1.248779   4 C  py        

 Vector  122  Occ=0.000000D+00  E= 2.606571D+00
              MO Center=  1.5D+00, -1.6D-05,  2.6D-02, r^2= 3.7D+00
   Bfn.  Coefficient  Atom+Function         Bfn.  Coefficient  Atom+Function  
  ----- ------------  ---------------      ----- ------------  ---------------
    48     -1.628660   3 C  s               143      1.586901   8 C  s         
    34      1.560106   2 C  dxy              49      1.340840   3 C  px        
   144     -1.331016   8 C  px               68      1.316607   4 C  px        
   125     -1.314625   7 C  px               67      0.944471   4 C  s         
   124     -0.914418   7 C  s                18     -0.890336   1 N  dyz       

 Vector  123  Occ=0.000000D+00  E= 2.629075D+00
              MO Center= -8.5D-02,  5.3D-04,  3.8D-02, r^2= 3.7D+00
   Bfn.  Coefficient  Atom+Function         Bfn.  Coefficient  Atom+Function  
  ----- ------------  ---------------      ----- ------------  ---------------
    10      1.372322   1 N  s                30     -1.074492   2 C  px        
    29     -0.925998   2 C  s                11     -0.698791   1 N  px        
    85      0.646920   5 C  pz               81     -0.615495   5 C  pz        
    66      0.559201   4 C  pz              123      0.558922   7 C  pz        
    62     -0.554401   4 C  pz              119     -0.554052   7 C  pz        

 Vector  124  Occ=0.000000D+00  E= 2.650648D+00
              MO Center=  3.8D-01,  2.5D-03, -1.5D-02, r^2= 5.1D+00
   Bfn.  Coefficient  Atom+Function         Bfn.  Coefficient  Atom+Function  
  ----- ------------  ---------------      ----- ------------  ---------------
    67      3.161640   4 C  s               124      3.169676   7 C  s         
    29      2.976419   2 C  s                86     -2.965913   5 C  s         
    87     -2.549591   5 C  px               10     -2.123933   1 N  s         
    48     -2.102305   3 C  s               143     -2.100873   8 C  s         
    69     -1.513579   4 C  py              126      1.516779   7 C  py        

 Vector  125  Occ=0.000000D+00  E= 2.717476D+00
              MO Center=  4.2D-01, -2.6D-03,  1.1D-02, r^2= 4.8D+00
   Bfn.  Coefficient  Atom+Function         Bfn.  Coefficient  Atom+Function  
  ----- ------------  ---------------      ----- ------------  ---------------
    48    -10.844761   3 C  s               143    -10.864724   8 C  s         
    29     10.298281   2 C  s                67     10.129559   4 C  s         
   124     10.136332   7 C  s                86     -9.525514   5 C  s         
    30     -6.405420   2 C  px               50      4.856395   3 C  py        
   145     -4.848721   8 C  py               87     -4.768164   5 C  px        

 Vector  126  Occ=0.000000D+00  E= 2.743689D+00
              MO Center= -3.6D-01, -1.3D-02, -5.4D-03, r^2= 3.5D+00
   Bfn.  Coefficient  Atom+Function         Bfn.  Coefficient  Atom+Function  
  ----- ------------  ---------------      ----- ------------  ---------------
    66      0.754502   4 C  pz              123     -0.749620   7 C  pz        
    62     -0.647818   4 C  pz              119      0.644333   7 C  pz        
   142     -0.611135   8 C  pz               48      0.597693   3 C  s         
   113     -0.600587   6 O  dyz              47      0.574164   3 C  pz        
   138      0.529560   8 C  pz               49     -0.518873   3 C  px        

 Vector  127  Occ=0.000000D+00  E= 2.781222D+00
              MO Center=  3.4D-01,  1.4D-02,  6.9D-02, r^2= 4.1D+00
   Bfn.  Coefficient  Atom+Function         Bfn.  Coefficient  Atom+Function  
  ----- ------------  ---------------      ----- ------------  ---------------
    29      6.381115   2 C  s                48     -5.414326   3 C  s         
   143     -5.413977   8 C  s                86     -5.227044   5 C  s         
    67      5.101871   4 C  s               124      5.103536   7 C  s         
    50      2.477993   3 C  py              145     -2.485487   8 C  py        
    69     -2.318831   4 C  py              126      2.320598   7 C  py        

 Vector  128  Occ=0.000000D+00  E= 2.813894D+00
              MO Center=  1.1D+00,  2.8D-03, -7.5D-02, r^2= 5.4D+00
   Bfn.  Coefficient  Atom+Function         Bfn.  Coefficient  Atom+Function  
  ----- ------------  ---------------      ----- ------------  ---------------
    30     -1.671897   2 C  px               10      1.555711   1 N  s         
    67      1.432333   4 C  s               124      1.434865   7 C  s         
    87     -1.413846   5 C  px               48     -1.304286   3 C  s         
   143     -1.300479   8 C  s                11     -0.897461   1 N  px        
   105     -0.791571   6 O  s                49      0.770168   3 C  px        

 Vector  129  Occ=0.000000D+00  E= 2.862930D+00
              MO Center= -8.7D-01, -9.9D-03,  1.3D-02, r^2= 4.7D+00
   Bfn.  Coefficient  Atom+Function         Bfn.  Coefficient  Atom+Function  
  ----- ------------  ---------------      ----- ------------  ---------------
   113      1.124033   6 O  dyz             124      0.932614   7 C  s         
   142     -0.721269   8 C  pz               47      0.715903   3 C  pz        
   143     -0.717647   8 C  s               138      0.566363   8 C  pz        
    43     -0.562671   3 C  pz              144      0.464333   8 C  px        
    67     -0.418614   4 C  s               130      0.364190   7 C  dxz       

 Vector  130  Occ=0.000000D+00  E= 2.884189D+00
              MO Center=  5.9D-03,  6.9D-03,  2.1D-02, r^2= 4.6D+00
   Bfn.  Coefficient  Atom+Function         Bfn.  Coefficient  Atom+Function  
  ----- ------------  ---------------      ----- ------------  ---------------
    67      2.256495   4 C  s               124     -2.033881   7 C  s         
    48     -1.858545   3 C  s               143      1.635662   8 C  s         
    69     -0.849830   4 C  py               49      0.801666   3 C  px        
    50      0.781581   3 C  py              129     -0.775633   7 C  dxy       
    72     -0.769069   4 C  dxy              53     -0.763055   3 C  dxy       

 Vector  131  Occ=0.000000D+00  E= 2.917885D+00
              MO Center=  4.5D-01,  1.3D-03,  2.7D-02, r^2= 3.2D+00
   Bfn.  Coefficient  Atom+Function         Bfn.  Coefficient  Atom+Function  
  ----- ------------  ---------------      ----- ------------  ---------------
    28      1.170423   2 C  pz               24     -0.887339   2 C  pz        
    86     -0.689656   5 C  s                85      0.656432   5 C  pz        
    66     -0.578612   4 C  pz              123     -0.573346   7 C  pz        
    32     -0.563673   2 C  pz               16      0.481512   1 N  dxz       
    81     -0.481527   5 C  pz               62      0.439989   4 C  pz        

 Vector  132  Occ=0.000000D+00  E= 2.947335D+00
              MO Center= -1.1D+00, -1.0D-02,  7.3D-02, r^2= 3.6D+00
   Bfn.  Coefficient  Atom+Function         Bfn.  Coefficient  Atom+Function  
  ----- ------------  ---------------      ----- ------------  ---------------
   113      1.032613   6 O  dyz             123     -0.798885   7 C  pz        
    66      0.792737   4 C  pz              119      0.598218   7 C  pz        
    62     -0.593667   4 C  pz               47     -0.506264   3 C  pz        
    94     -0.507203   5 C  dyz             142      0.504959   8 C  pz        
   124      0.470100   7 C  s                31     -0.444964   2 C  py        

 Vector  133  Occ=0.000000D+00  E= 2.963442D+00
              MO Center= -1.2D+00,  1.6D-02,  4.9D-02, r^2= 3.1D+00
   Bfn.  Coefficient  Atom+Function         Bfn.  Coefficient  Atom+Function  
  ----- ------------  ---------------      ----- ------------  ---------------
    86      3.403297   5 C  s               126     -1.189057   7 C  py        
    69      1.170066   4 C  py              124     -1.156913   7 C  s         
    82      1.121948   5 C  s                67     -1.109121   4 C  s         
   143      0.929255   8 C  s                29     -0.908165   2 C  s         
    48      0.908300   3 C  s                95     -0.862560   5 C  dzz       

 Vector  134  Occ=0.000000D+00  E= 2.985583D+00
              MO Center=  6.7D-01, -6.7D-03,  4.2D-02, r^2= 4.7D+00
   Bfn.  Coefficient  Atom+Function         Bfn.  Coefficient  Atom+Function  
  ----- ------------  ---------------      ----- ------------  ---------------
    67      1.216730   4 C  s               124     -1.162364   7 C  s         
    55     -0.761581   3 C  dyy             150      0.764675   8 C  dyy       
    44      0.747195   3 C  s               139     -0.750771   8 C  s         
   131      0.652580   7 C  dyy              74     -0.646665   4 C  dyy       
   120     -0.648385   7 C  s                15     -0.637784   1 N  dxy       

 Vector  135  Occ=0.000000D+00  E= 3.063440D+00
              MO Center=  3.0D-01,  2.1D-04, -1.5D-02, r^2= 3.6D+00
   Bfn.  Coefficient  Atom+Function         Bfn.  Coefficient  Atom+Function  
  ----- ------------  ---------------      ----- ------------  ---------------
    86      2.709723   5 C  s                30      2.428263   2 C  px        
    67     -2.082145   4 C  s               124     -2.088361   7 C  s         
    10     -1.654758   1 N  s                29     -1.321267   2 C  s         
    50     -1.288676   3 C  py              145      1.288717   8 C  py        
    44     -1.151535   3 C  s               139     -1.150865   8 C  s         

 Vector  136  Occ=0.000000D+00  E= 3.088818D+00
              MO Center= -4.3D-01, -1.5D-03, -3.2D-03, r^2= 3.0D+00
   Bfn.  Coefficient  Atom+Function         Bfn.  Coefficient  Atom+Function  
  ----- ------------  ---------------      ----- ------------  ---------------
    30      1.615102   2 C  px               10     -1.285678   1 N  s         
    87      1.100428   5 C  px              105      0.942256   6 O  s         
    63      0.901735   4 C  s                67      0.902342   4 C  s         
   120      0.901688   7 C  s               124      0.900648   7 C  s         
    36      0.876950   2 C  dyy              29     -0.763407   2 C  s         

 Vector  137  Occ=0.000000D+00  E= 3.116344D+00
              MO Center= -2.0D-01,  2.7D-03,  5.4D-02, r^2= 3.2D+00
   Bfn.  Coefficient  Atom+Function         Bfn.  Coefficient  Atom+Function  
  ----- ------------  ---------------      ----- ------------  ---------------
    67      0.942815   4 C  s               124      0.941755   7 C  s         
    86     -0.866013   5 C  s                48     -0.839497   3 C  s         
   143     -0.826850   8 C  s                47      0.792894   3 C  pz        
   142      0.791907   8 C  pz               28     -0.786909   2 C  pz        
    66     -0.734850   4 C  pz              123     -0.730443   7 C  pz        

 Vector  138  Occ=0.000000D+00  E= 3.132979D+00
              MO Center=  9.6D-01, -7.5D-04, -2.0D-02, r^2= 4.4D+00
   Bfn.  Coefficient  Atom+Function         Bfn.  Coefficient  Atom+Function  
  ----- ------------  ---------------      ----- ------------  ---------------
   124      1.218291   7 C  s                67     -1.153894   4 C  s         
    15     -1.079298   1 N  dxy              34     -0.941108   2 C  dxy       
    63     -0.871838   4 C  s               120      0.873535   7 C  s         
   131     -0.748010   7 C  dyy              74      0.740451   4 C  dyy       
    31      0.599958   2 C  py               71      0.573479   4 C  dxx       

 Vector  139  Occ=0.000000D+00  E= 3.135769D+00
              MO Center= -2.1D+00,  2.3D-03,  9.9D-03, r^2= 1.7D+00
   Bfn.  Coefficient  Atom+Function         Bfn.  Coefficient  Atom+Function  
  ----- ------------  ---------------      ----- ------------  ---------------
    86     -1.748004   5 C  s                67      1.624569   4 C  s         
   124      1.572090   7 C  s               143     -1.184230   8 C  s         
    48     -1.176132   3 C  s               111      0.987298   6 O  dxz       
    29      0.921876   2 C  s                85     -0.900183   5 C  pz        
    81      0.638351   5 C  pz               87     -0.586693   5 C  px        

 Vector  140  Occ=0.000000D+00  E= 3.174678D+00
              MO Center= -1.1D-01, -1.4D-03,  1.7D-02, r^2= 2.8D+00
   Bfn.  Coefficient  Atom+Function         Bfn.  Coefficient  Atom+Function  
  ----- ------------  ---------------      ----- ------------  ---------------
   143      1.671729   8 C  s                48     -1.658655   3 C  s         
    31      1.563900   2 C  py               88      0.944134   5 C  py        
    80      0.584348   5 C  py               27     -0.505035   2 C  py        
    23      0.497912   2 C  py               84     -0.492280   5 C  py        
    41      0.466376   3 C  px               60     -0.467880   4 C  px        

 Vector  141  Occ=0.000000D+00  E= 3.195341D+00
              MO Center=  6.9D-01,  7.8D-04, -4.0D-02, r^2= 3.4D+00
   Bfn.  Coefficient  Atom+Function         Bfn.  Coefficient  Atom+Function  
  ----- ------------  ---------------      ----- ------------  ---------------
    67     -1.799606   4 C  s               124      1.796088   7 C  s         
    48      1.682956   3 C  s               143     -1.686205   8 C  s         
    44      1.022871   3 C  s               139     -1.022977   8 C  s         
    52     -0.851831   3 C  dxx             147      0.851561   8 C  dxx       
    55     -0.780046   3 C  dyy             150      0.780284   8 C  dyy       

 Vector  142  Occ=0.000000D+00  E= 3.265614D+00
              MO Center=  4.6D-02,  1.0D-03,  4.5D-03, r^2= 2.9D+00
   Bfn.  Coefficient  Atom+Function         Bfn.  Coefficient  Atom+Function  
  ----- ------------  ---------------      ----- ------------  ---------------
    29      2.739811   2 C  s                30     -2.404093   2 C  px        
    48     -2.177818   3 C  s               143     -2.172798   8 C  s         
    10      1.344276   1 N  s                87      1.139056   5 C  px        
    33     -1.054170   2 C  dxx              25      0.957758   2 C  s         
    86      0.903479   5 C  s                50      0.890795   3 C  py        

 Vector  143  Occ=0.000000D+00  E= 3.324984D+00
              MO Center=  3.5D-02, -1.2D-02,  7.7D-03, r^2= 3.8D+00
   Bfn.  Coefficient  Atom+Function         Bfn.  Coefficient  Atom+Function  
  ----- ------------  ---------------      ----- ------------  ---------------
    67     -3.046976   4 C  s               124     -3.045490   7 C  s         
    48      2.941455   3 C  s               143      2.929074   8 C  s         
    86      2.081767   5 C  s                29     -1.662056   2 C  s         
    87      1.645343   5 C  px               30      1.586892   2 C  px        
    68     -0.661023   4 C  px               10     -0.655643   1 N  s         

 Vector  144  Occ=0.000000D+00  E= 3.337300D+00
              MO Center= -9.9D-01,  1.2D-02,  4.0D-02, r^2= 2.9D+00
   Bfn.  Coefficient  Atom+Function         Bfn.  Coefficient  Atom+Function  
  ----- ------------  ---------------      ----- ------------  ---------------
    88      1.567108   5 C  py               69     -1.411160   4 C  py        
   126     -1.415994   7 C  py              125     -1.217125   7 C  px        
    68      1.197819   4 C  px              145      1.203328   8 C  py        
    50      1.174865   3 C  py              143      1.064993   8 C  s         
    48     -0.964872   3 C  s               163      0.857599  12 H  s         

 Vector  145  Occ=0.000000D+00  E= 3.355571D+00
              MO Center=  1.9D+00, -2.9D-04, -8.4D-02, r^2= 1.9D+00
   Bfn.  Coefficient  Atom+Function         Bfn.  Coefficient  Atom+Function  
  ----- ------------  ---------------      ----- ------------  ---------------
    29      2.987564   2 C  s                48     -2.832919   3 C  s         
   143     -2.843823   8 C  s                86     -2.663919   5 C  s         
    67      2.318826   4 C  s               124      2.329933   7 C  s         
    30     -2.006042   2 C  px               10      1.845181   1 N  s         
   145     -1.667568   8 C  py               50      1.646198   3 C  py        

 Vector  146  Occ=0.000000D+00  E= 3.371109D+00
              MO Center= -4.4D-01,  2.6D-02,  1.8D-02, r^2= 3.6D+00
   Bfn.  Coefficient  Atom+Function         Bfn.  Coefficient  Atom+Function  
  ----- ------------  ---------------      ----- ------------  ---------------
    30      2.476369   2 C  px               29     -1.962420   2 C  s         
    48      1.235939   3 C  s               143      1.204173   8 C  s         
    50     -1.168108   3 C  py               87     -1.133920   5 C  px        
    49     -1.053388   3 C  px              145      1.052813   8 C  py        
    10     -1.016645   1 N  s               144     -0.961743   8 C  px        

 Vector  147  Occ=0.000000D+00  E= 3.376743D+00
              MO Center=  5.4D-01, -5.0D-02, -1.4D-02, r^2= 3.4D+00
   Bfn.  Coefficient  Atom+Function         Bfn.  Coefficient  Atom+Function  
  ----- ------------  ---------------      ----- ------------  ---------------
    67      1.684547   4 C  s               124     -1.650417   7 C  s         
   144     -1.419875   8 C  px              145      1.421261   8 C  py        
    49      1.378268   3 C  px               50      1.379475   3 C  py        
    31     -1.360757   2 C  py               88     -1.147023   5 C  py        
   172      0.992110  15 H  s               160     -0.966101  11 H  s         

 Vector  148  Occ=0.000000D+00  E= 3.429930D+00
              MO Center= -2.3D+00,  4.0D-02,  5.0D-02, r^2= 2.2D+00
   Bfn.  Coefficient  Atom+Function         Bfn.  Coefficient  Atom+Function  
  ----- ------------  ---------------      ----- ------------  ---------------
    87      2.165571   5 C  px               86      2.136661   5 C  s         
    67     -1.834210   4 C  s               124     -1.741875   7 C  s         
    48      1.348497   3 C  s                69      1.246203   4 C  py        
   105      1.234915   6 O  s               143      1.112100   8 C  s         
   111      1.095395   6 O  dxz              68     -1.085555   4 C  px        

 Vector  149  Occ=0.000000D+00  E= 3.444188D+00
              MO Center= -1.9D+00, -1.4D-02,  9.0D-02, r^2= 2.5D+00
   Bfn.  Coefficient  Atom+Function         Bfn.  Coefficient  Atom+Function  
  ----- ------------  ---------------      ----- ------------  ---------------
   126      1.435323   7 C  py              143     -1.422143   8 C  s         
   110     -1.380215   6 O  dxy              69      1.315450   4 C  py        
    48      1.284412   3 C  s               125      0.953490   7 C  px        
    91     -0.894477   5 C  dxy             124      0.898335   7 C  s         
    68     -0.833721   4 C  px               50     -0.810577   3 C  py        

 Vector  150  Occ=0.000000D+00  E= 3.612992D+00
              MO Center= -9.5D-02,  1.2D-03,  6.5D-03, r^2= 3.8D+00
   Bfn.  Coefficient  Atom+Function         Bfn.  Coefficient  Atom+Function  
  ----- ------------  ---------------      ----- ------------  ---------------
    29      6.053841   2 C  s                86     -5.957104   5 C  s         
    48     -5.673145   3 C  s               143     -5.679777   8 C  s         
    67      5.535087   4 C  s               124      5.547125   7 C  s         
    30     -3.520735   2 C  px               50      3.113679   3 C  py        
   145     -3.121739   8 C  py               69     -2.959372   4 C  py        

 Vector  151  Occ=0.000000D+00  E= 3.832321D+00
              MO Center=  2.7D+00, -1.4D-03, -2.3D-01, r^2= 9.3D-01
   Bfn.  Coefficient  Atom+Function         Bfn.  Coefficient  Atom+Function  
  ----- ------------  ---------------      ----- ------------  ---------------
     9      1.482947   1 N  pz                5     -1.255086   1 N  pz        
    30     -1.073987   2 C  px               48     -0.880861   3 C  s         
   143     -0.877882   8 C  s                10      0.844491   1 N  s         
    29      0.815588   2 C  s                13     -0.691804   1 N  pz        
    86     -0.660277   5 C  s                50      0.579060   3 C  py        

 Vector  152  Occ=0.000000D+00  E= 3.890628D+00
              MO Center= -2.0D+00,  2.3D-03,  9.7D-02, r^2= 2.8D+00
   Bfn.  Coefficient  Atom+Function         Bfn.  Coefficient  Atom+Function  
  ----- ------------  ---------------      ----- ------------  ---------------
   105      1.904411   6 O  s                90     -1.506045   5 C  dxx       
   106      1.275248   6 O  px               87      1.024301   5 C  px        
    93     -0.929087   5 C  dyy             109      0.899945   6 O  dxx       
   122      0.756611   7 C  py               65     -0.752677   4 C  py        
    36     -0.726779   2 C  dyy              26      0.561862   2 C  px        

 Vector  153  Occ=0.000000D+00  E= 4.065634D+00
              MO Center=  4.4D-01, -1.3D-03, -1.6D-02, r^2= 3.3D+00
   Bfn.  Coefficient  Atom+Function         Bfn.  Coefficient  Atom+Function  
  ----- ------------  ---------------      ----- ------------  ---------------
    27      1.558189   2 C  py               52     -1.395530   3 C  dxx       
    71      1.395858   4 C  dxx             147      1.401034   8 C  dxx       
   128     -1.393173   7 C  dxx             121     -1.331505   7 C  px        
    64      1.322105   4 C  px               45      1.228050   3 C  px        
   140     -1.222090   8 C  px               84     -1.208207   5 C  py        

 Vector  154  Occ=0.000000D+00  E= 4.080837D+00
              MO Center= -2.2D-01,  7.4D-04,  1.7D-02, r^2= 3.8D+00
   Bfn.  Coefficient  Atom+Function         Bfn.  Coefficient  Atom+Function  
  ----- ------------  ---------------      ----- ------------  ---------------
    83      1.734350   5 C  px               36      1.646013   2 C  dyy       
    26     -1.433329   2 C  px               46      1.354718   3 C  py        
   141     -1.343609   8 C  py               93      1.325414   5 C  dyy       
    65      1.049163   4 C  py              122     -1.053388   7 C  py        
   140     -0.959677   8 C  px               45     -0.949711   3 C  px        

 Vector  155  Occ=0.000000D+00  E= 4.165252D+00
              MO Center=  1.6D+00, -1.7D-03, -7.5D-02, r^2= 4.0D+00
   Bfn.  Coefficient  Atom+Function         Bfn.  Coefficient  Atom+Function  
  ----- ------------  ---------------      ----- ------------  ---------------
    84      1.939474   5 C  py                8      1.358262   1 N  py        
    91      1.328999   5 C  dxy              12     -1.103491   1 N  py        
     4     -1.031960   1 N  py               65      0.995903   4 C  py        
   122      0.999232   7 C  py               34     -0.866684   2 C  dxy       
   140      0.850333   8 C  px               45     -0.845351   3 C  px        

 Vector  156  Occ=0.000000D+00  E= 4.217192D+00
              MO Center= -1.4D-01,  2.0D-03,  7.7D-03, r^2= 3.1D+00
   Bfn.  Coefficient  Atom+Function         Bfn.  Coefficient  Atom+Function  
  ----- ------------  ---------------      ----- ------------  ---------------
    64      2.464560   4 C  px              121      2.456800   7 C  px        
    45      2.233092   3 C  px              140      2.232501   8 C  px        
    67     -1.257126   4 C  s               124     -1.242418   7 C  s         
    52     -1.206519   3 C  dxx              83      1.201974   5 C  px        
   147     -1.201522   8 C  dxx              71      1.125918   4 C  dxx       

 Vector  157  Occ=0.000000D+00  E= 4.235814D+00
              MO Center=  7.3D-01, -3.7D-04, -2.1D-02, r^2= 3.3D+00
   Bfn.  Coefficient  Atom+Function         Bfn.  Coefficient  Atom+Function  
  ----- ------------  ---------------      ----- ------------  ---------------
    27      2.800586   2 C  py               84      2.404589   5 C  py        
    34     -1.738625   2 C  dxy              91      1.713271   5 C  dxy       
    46      1.358382   3 C  py              141      1.354892   8 C  py        
    65      1.236130   4 C  py              122      1.238378   7 C  py        
    53      1.119882   3 C  dxy             148      1.119143   8 C  dxy       

 Vector  158  Occ=0.000000D+00  E= 4.404799D+00
              MO Center=  2.3D+00, -1.2D-03, -4.2D-02, r^2= 2.7D+00
   Bfn.  Coefficient  Atom+Function         Bfn.  Coefficient  Atom+Function  
  ----- ------------  ---------------      ----- ------------  ---------------
    10      4.544415   1 N  s                30     -3.821467   2 C  px        
    48     -3.189475   3 C  s               143     -3.192529   8 C  s         
    67      2.750766   4 C  s               124      2.753839   7 C  s         
    86     -2.145107   5 C  s                29      1.656526   2 C  s         
    50      1.658174   3 C  py              145     -1.662512   8 C  py        

 Vector  159  Occ=0.000000D+00  E= 4.453850D+00
              MO Center=  4.4D-01, -2.2D-04, -3.8D-03, r^2= 2.9D+00
   Bfn.  Coefficient  Atom+Function         Bfn.  Coefficient  Atom+Function  
  ----- ------------  ---------------      ----- ------------  ---------------
    29      2.279144   2 C  s                86     -1.988871   5 C  s         
    26      1.729552   2 C  px               67      1.515674   4 C  s         
   124      1.521699   7 C  s                48     -1.462736   3 C  s         
    83      1.460429   5 C  px              143     -1.463523   8 C  s         
    10     -1.442048   1 N  s                36     -1.350546   2 C  dyy       

 Vector  160  Occ=0.000000D+00  E= 4.862379D+00
              MO Center= -1.5D-01,  2.9D-04,  1.2D-02, r^2= 2.7D+00
   Bfn.  Coefficient  Atom+Function         Bfn.  Coefficient  Atom+Function  
  ----- ------------  ---------------      ----- ------------  ---------------
    84     -3.036661   5 C  py               27      2.816459   2 C  py        
    64     -2.602141   4 C  px              121      2.599065   7 C  px        
    45     -2.571792   3 C  px              140      2.572874   8 C  px        
    91     -2.266556   5 C  dxy              34     -2.228083   2 C  dxy       
    88      1.821351   5 C  py               31     -1.473306   2 C  py        

 Vector  161  Occ=0.000000D+00  E= 4.981657D+00
              MO Center= -2.7D+00,  3.3D-03,  1.4D-01, r^2= 1.0D+00
   Bfn.  Coefficient  Atom+Function         Bfn.  Coefficient  Atom+Function  
  ----- ------------  ---------------      ----- ------------  ---------------
    67      1.524475   4 C  s               103     -1.476377   6 O  py        
   124     -1.442063   7 C  s                88     -1.413394   5 C  py        
    99      1.237917   6 O  py              107      0.875299   6 O  py        
    91     -0.723100   5 C  dxy              45     -0.659579   3 C  px        
   140      0.658486   8 C  px               64     -0.645642   4 C  px        

 Vector  162  Occ=0.000000D+00  E= 5.050934D+00
              MO Center= -2.8D+00,  4.2D-03,  1.4D-01, r^2= 6.2D-01
   Bfn.  Coefficient  Atom+Function         Bfn.  Coefficient  Atom+Function  
  ----- ------------  ---------------      ----- ------------  ---------------
    87      1.551348   5 C  px              104     -1.509635   6 O  pz        
   124     -1.499295   7 C  s               143      1.436450   8 C  s         
    48      1.394076   3 C  s                67     -1.377613   4 C  s         
   100      1.256449   6 O  pz              108      0.929890   6 O  pz        
    29     -0.842042   2 C  s                68     -0.816615   4 C  px        

 Vector  163  Occ=0.000000D+00  E= 5.151289D+00
              MO Center=  2.1D+00, -1.2D-03, -1.0D-01, r^2= 1.3D+00
   Bfn.  Coefficient  Atom+Function         Bfn.  Coefficient  Atom+Function  
  ----- ------------  ---------------      ----- ------------  ---------------
    10      2.656301   1 N  s                30     -2.645983   2 C  px        
    26      2.238761   2 C  px                7      2.006780   1 N  px        
    14     -1.935578   1 N  dxx              33      1.150058   2 C  dxx       
    11     -1.081703   1 N  px                6      1.068110   1 N  s         
    19     -0.947193   1 N  dzz               3     -0.902466   1 N  px        

 Vector  164  Occ=0.000000D+00  E= 5.453080D+00
              MO Center= -2.7D+00,  2.9D-03,  1.0D-01, r^2= 8.3D-01
   Bfn.  Coefficient  Atom+Function         Bfn.  Coefficient  Atom+Function  
  ----- ------------  ---------------      ----- ------------  ---------------
    86      1.986822   5 C  s                67     -1.719836   4 C  s         
   124     -1.724788   7 C  s               102      1.634732   6 O  px        
   105      1.614806   6 O  s                29     -1.406702   2 C  s         
    48      1.367178   3 C  s               143      1.369883   8 C  s         
    87      1.344709   5 C  px               83      1.185435   5 C  px        

 Vector  165  Occ=0.000000D+00  E= 6.478932D+00
              MO Center= -2.5D+00,  3.4D-03,  1.4D-01, r^2= 7.3D-01
   Bfn.  Coefficient  Atom+Function         Bfn.  Coefficient  Atom+Function  
  ----- ------------  ---------------      ----- ------------  ---------------
    87      2.613961   5 C  px              105      2.623488   6 O  s         
   101      2.217879   6 O  s               109     -1.726901   6 O  dxx       
   124     -1.549978   7 C  s                67     -1.540138   4 C  s         
   112     -1.482099   6 O  dyy             114     -1.483795   6 O  dzz       
    48      1.086742   3 C  s               143      1.087265   8 C  s         

 Vector  166  Occ=0.000000D+00  E= 2.628913D+01
              MO Center= -2.4D-01, -3.0D-04,  1.2D-02, r^2= 2.0D+00
   Bfn.  Coefficient  Atom+Function         Bfn.  Coefficient  Atom+Function  
  ----- ------------  ---------------      ----- ------------  ---------------
    78      1.215719   5 C  s                59      1.126020   4 C  s         
   116      1.126751   7 C  s                77     -0.999201   5 C  s         
    40      0.952593   3 C  s               135      0.952888   8 C  s         
    58     -0.927007   4 C  s               115     -0.927605   7 C  s         
    21      0.868562   2 C  s                39     -0.784254   3 C  s         

 Vector  167  Occ=0.000000D+00  E= 2.631915D+01
              MO Center= -2.6D-02, -1.9D-03,  5.9D-03, r^2= 2.1D+00
   Bfn.  Coefficient  Atom+Function         Bfn.  Coefficient  Atom+Function  
  ----- ------------  ---------------      ----- ------------  ---------------
    59      1.299097   4 C  s               116     -1.290873   7 C  s         
   135     -1.277559   8 C  s                40      1.265115   3 C  s         
    58     -1.068645   4 C  s               115      1.061874   7 C  s         
   134      1.050926   8 C  s                39     -1.040692   3 C  s         
    63     -0.575008   4 C  s               120      0.571386   7 C  s         

 Vector  168  Occ=0.000000D+00  E= 2.632256D+01
              MO Center=  2.5D-01,  7.4D-04, -4.6D-03, r^2= 2.0D+00
   Bfn.  Coefficient  Atom+Function         Bfn.  Coefficient  Atom+Function  
  ----- ------------  ---------------      ----- ------------  ---------------
    21      1.577933   2 C  s                20     -1.295692   2 C  s         
    78     -1.258129   5 C  s                77      1.032966   5 C  s         
    40      0.901340   3 C  s               135      0.884700   8 C  s         
    39     -0.741418   3 C  s               134     -0.727729   8 C  s         
   116     -0.694561   7 C  s                25     -0.687791   2 C  s         

 Vector  169  Occ=0.000000D+00  E= 2.648219D+01
              MO Center= -2.2D-02,  1.5D-03,  3.7D-03, r^2= 2.1D+00
   Bfn.  Coefficient  Atom+Function         Bfn.  Coefficient  Atom+Function  
  ----- ------------  ---------------      ----- ------------  ---------------
    78      1.518663   5 C  s                21      1.469246   2 C  s         
    77     -1.239457   5 C  s                20     -1.198987   2 C  s         
    29     -0.971696   2 C  s                86     -0.809969   5 C  s         
    40     -0.789863   3 C  s               135     -0.770056   8 C  s         
   116     -0.727915   7 C  s                59     -0.712282   4 C  s         

 Vector  170  Occ=0.000000D+00  E= 2.648876D+01
              MO Center= -9.6D-04, -1.1D-03,  5.1D-03, r^2= 2.1D+00
   Bfn.  Coefficient  Atom+Function         Bfn.  Coefficient  Atom+Function  
  ----- ------------  ---------------      ----- ------------  ---------------
   135     -1.311776   8 C  s                40      1.300386   3 C  s         
    59     -1.286953   4 C  s               116      1.277548   7 C  s         
   134      1.072237   8 C  s                39     -1.062932   3 C  s         
    58      1.051943   4 C  s               115     -1.044247   7 C  s         
   143      0.981265   8 C  s                48     -0.970578   3 C  s         

 Vector  171  Occ=0.000000D+00  E= 2.678497D+01
              MO Center= -3.1D-02,  8.4D-04,  4.9D-03, r^2= 2.1D+00
   Bfn.  Coefficient  Atom+Function         Bfn.  Coefficient  Atom+Function  
  ----- ------------  ---------------      ----- ------------  ---------------
    48     -2.608684   3 C  s               143     -2.607039   8 C  s         
    67      2.589936   4 C  s               124      2.590026   7 C  s         
    86     -2.568583   5 C  s                29      2.522641   2 C  s         
    30     -1.400235   2 C  px               87     -1.268267   5 C  px        
    78      1.162483   5 C  s                21     -1.145954   2 C  s         

 Vector  172  Occ=0.000000D+00  E= 3.930186D+01
              MO Center=  2.8D+00, -1.4D-03, -1.5D-01, r^2= 1.0D-01
   Bfn.  Coefficient  Atom+Function         Bfn.  Coefficient  Atom+Function  
  ----- ------------  ---------------      ----- ------------  ---------------
     2      2.643624   1 N  s                 1     -2.223292   1 N  s         
    10     -1.434211   1 N  s                30      1.083630   2 C  px        
     6     -0.997999   1 N  s                14      0.665011   1 N  dxx       
    19      0.620117   1 N  dzz              17      0.615182   1 N  dyy       
    48      0.516829   3 C  s               143      0.517257   8 C  s         

 Vector  173  Occ=0.000000D+00  E= 5.511253D+01
              MO Center= -2.8D+00,  3.6D-03,  1.4D-01, r^2= 7.2D-02
   Bfn.  Coefficient  Atom+Function         Bfn.  Coefficient  Atom+Function  
  ----- ------------  ---------------      ----- ------------  ---------------
    97      2.718299   6 O  s                96     -2.321966   6 O  s         
   101     -1.076703   6 O  s               105     -0.796559   6 O  s         
    87     -0.765803   5 C  px              109      0.590942   6 O  dxx       
   112      0.584176   6 O  dyy             114      0.581624   6 O  dzz       
    67      0.516310   4 C  s               124      0.518706   7 C  s         


 center of mass
 --------------
 x =  -0.05480056 y =   0.00030005 z =   0.00470536

 moments of inertia (a.u.)
 ------------------
         322.018404938800           0.627809630243          38.652637073831
           0.627809630243        1222.516168839556          -0.124861206478
          38.652637073831          -0.124861206478        1534.962645927257

     Multipole analysis of the density
     ---------------------------------

     L   x y z        total         alpha         beta         nuclear
     -   - - -        -----         -----         ----         -------
     0   0 0 0     -0.000000    -29.000000    -29.000000     58.000000

     1   1 0 0      0.663234      0.331617      0.331617     -0.000000
     1   0 1 0     -0.012277     -0.006139     -0.006139     -0.000000
     1   0 0 1     -0.200505     -0.100252     -0.100252      0.000000

     2   2 0 0    -29.237866   -352.007283   -352.007283    674.776700
     2   1 1 0      0.082316      0.162366      0.162366     -0.242416
     2   1 0 1      7.078402     10.172630     10.172630    -13.266858
     2   0 2 0    -30.565440   -112.033584   -112.033584    193.501728
     2   0 1 1      0.016283     -0.031565     -0.031565      0.079413
     2   0 0 2    -37.380653    -20.454002    -20.454002      3.527352

  int_init: cando_txs set to always be  F
                                NWChem TDDFT Module
                                -------------------


 para-aminophenol LR-TDDFT, LC-wPBE mu=0.299475, 6-311G* Cartesian, PBE0 geometry


            General Information
            -------------------
           No. of orbitals :     346
            Alpha orbitals :     173
             Beta orbitals :     173
        Alpha frozen cores :       0
         Beta frozen cores :       0
     Alpha frozen virtuals :       0
      Beta frozen virtuals :       0
         Spin multiplicity :       1
    Number of AO functions :     173
        Use of symmetry is : off
      Symmetry adaption is : off
         Schwarz screening :  0.10D-07

              XC Information
              --------------
              Hartree-Fock (Exact) Exchange   1.00          
              LC-wPBE(h)Exchange Functional   1.00          
     Perdew 1991 LDA Correlation Functional   1.00 local    
    PerdewBurkeErnz. Correlation Functional   1.00 non-local
           Alpha           :  0.00
           Beta            :  1.00
           Gamma           :  0.30

             TDDFT Information
             -----------------
          Calculation type : TDDFT             
         Wavefunction type : Restricted singlets
          No. of electrons :      58
           Alpha electrons :      29
            Beta electrons :      29
              No. of roots :      30
          Max subspacesize :   10000
            Max iterations :     100
               Target root :       1
           Target symmetry : none
      Symmetry restriction : off
                 Algorithm : Optimal
        Davidson threshold :  0.10D-03

            Memory Information
            ------------------
          Available GA space size is         163810071 doubles
          Available MA space size is         163838308 doubles
          Length of a trial vector is         4176
          Algorithm : Incore multiple tensor contraction
          Max subspace size reduced from     10000 to     8419
          Estimated peak GA usage is         148184212 doubles
          Estimated peak MA usage is            633000 doubles

   30 smallest eigenvalue differences (eV) 
--------------------------------------------------------
  No. Spin  Occ  Vir  Irrep   E(Occ)    E(Vir)   E(Diff)
--------------------------------------------------------
    1    1   29   30 a        -0.284     0.070     9.637
    2    1   29   31 a        -0.284     0.090    10.188
    3    1   29   32 a        -0.284     0.122    11.067
    4    1   28   30 a        -0.343     0.070    11.235
    5    1   29   33 a        -0.284     0.131    11.303
    6    1   29   34 a        -0.284     0.147    11.740
    7    1   28   31 a        -0.343     0.090    11.786
    8    1   29   35 a        -0.284     0.150    11.822
    9    1   27   30 a        -0.375     0.070    12.110
   10    1   27   31 a        -0.375     0.090    12.661
   11    1   28   32 a        -0.343     0.122    12.665
   12    1   26   30 a        -0.399     0.070    12.749
   13    1   29   36 a        -0.284     0.187    12.840
   14    1   28   33 a        -0.343     0.131    12.901
   15    1   29   37 a        -0.284     0.204    13.299
   16    1   26   31 a        -0.399     0.090    13.299
   17    1   28   34 a        -0.343     0.147    13.338
   18    1   28   35 a        -0.343     0.150    13.420
   19    1   27   32 a        -0.375     0.122    13.540
   20    1   27   33 a        -0.375     0.131    13.776
   21    1   25   30 a        -0.440     0.070    13.885
   22    1   29   38 a        -0.284     0.227    13.924
   23    1   26   32 a        -0.399     0.122    14.179
   24    1   27   34 a        -0.375     0.147    14.213
   25    1   27   35 a        -0.375     0.150    14.296
   26    1   24   30 a        -0.460     0.070    14.403
   27    1   26   33 a        -0.399     0.131    14.414
   28    1   25   31 a        -0.440     0.090    14.436
   29    1   28   36 a        -0.343     0.187    14.438
   30    1   29   39 a        -0.284     0.257    14.738
--------------------------------------------------------

  Entering Davidson iterations
  Restricted singlet excited states

  Iter   NTrls   NConv    DeltaV     DeltaE      Time   
  ----  ------  ------  ---------  ---------  --------- 
    1     30       0     0.35E+00   0.10+100      183.7
    2     90       0     0.50E-01   0.31E-01      331.6
    3    150       0     0.77E-01   0.90E-02      336.4
    4    210       0     0.43E-01   0.75E-02      332.3
    5    270       2     0.39E-01   0.16E-02      346.2
    6    325      17     0.34E-01   0.64E-02      316.4
    7    349      23     0.74E-02   0.47E-03      156.1
    8    363      24     0.16E-02   0.18E-04      108.2
    9    375      28     0.28E-03   0.48E-06      100.3
   10    379      30     0.66E-04   0.14E-07       60.4
  ----  ------  ------  ---------  ---------  --------- 
  Convergence criterion met

  Ground state a        -362.576723251609 a.u.

  ----------------------------------------------------------------------------
  Root   1 singlet a              0.177660127 a.u.                4.8344 eV 
  ----------------------------------------------------------------------------
     Transition Moments    X -0.00238   Y  0.64155   Z -0.00012
     Transition Moments   XX  0.00684  XY  0.09520  XZ  0.00495
     Transition Moments   YY -0.00248  YZ  0.00402  ZZ  0.00042
     Dipole Oscillator Strength                    0.0487491016
     Electric Quadrupole                           0.0000000003
     Magnetic Dipole                               0.0000002987
     Total Oscillator Strength                     0.0487494005

     Occ.   28  a   ---  Virt.   31  a   -0.32966 X
     Occ.   28  a   ---  Virt.   31  a   -0.07864 Y
     Occ.   28  a   ---  Virt.   32  a    0.06155 X
     Occ.   28  a   ---  Virt.   33  a    0.05536 X
     Occ.   29  a   ---  Virt.   30  a    0.93964 X
  ----------------------------------------------------------------------------
  Root   2 singlet a              0.215094353 a.u.                5.8530 eV 
  ----------------------------------------------------------------------------
     Transition Moments    X  1.11628   Y -0.00050   Z  0.00030
     Transition Moments   XX  2.68009  XY -0.00566  XZ -0.18227
     Transition Moments   YY -0.62451  YZ -0.00012  ZZ -0.09991
     Dipole Oscillator Strength                    0.1786826386
     Electric Quadrupole                           0.0000001689
     Magnetic Dipole                               0.0000000105
     Total Oscillator Strength                     0.1786828180

     Occ.   26  a   ---  Virt.   32  a    0.06988 X
     Occ.   28  a   ---  Virt.   30  a    0.34210 X
     Occ.   29  a   ---  Virt.   31  a    0.92068 X
     Occ.   29  a   ---  Virt.   31  a   -0.05401 Y
     Occ.   29  a   ---  Virt.   32  a    0.09037 X
     Occ.   29  a   ---  Virt.   33  a   -0.07968 X
  ----------------------------------------------------------------------------
  Root   3 singlet a              0.234876957 a.u.                6.3913 eV 
  ----------------------------------------------------------------------------
     Transition Moments    X  0.07762   Y -0.00037   Z -0.11921
     Transition Moments   XX -0.49644  XY  0.00159  XZ -1.24805
     Transition Moments   YY  0.02962  YZ  0.00084  ZZ  0.05876
     Dipole Oscillator Strength                    0.0031686617
     Electric Quadrupole                           0.0000001142
     Magnetic Dipole                               0.0000010885
     Total Oscillator Strength                     0.0031698644

     Occ.   26  a   ---  Virt.   31  a   -0.07705 X
     Occ.   26  a   ---  Virt.   32  a   -0.23047 X
     Occ.   26  a   ---  Virt.   34  a   -0.09315 X
     Occ.   28  a   ---  Virt.   30  a    0.19654 X
     Occ.   28  a   ---  Virt.   35  a   -0.05716 X
     Occ.   29  a   ---  Virt.   32  a   -0.92947 X
     Occ.   29  a   ---  Virt.   34  a   -0.12267 X
  ----------------------------------------------------------------------------
  Root   4 singlet a              0.257858728 a.u.                7.0167 eV 
  ----------------------------------------------------------------------------
     Transition Moments    X  1.79300   Y  0.01745   Z -0.02616
     Transition Moments   XX  1.23627  XY -0.00085  XZ -0.43742
     Transition Moments   YY -0.29729  YZ  0.00214  ZZ -0.02600
     Dipole Oscillator Strength                    0.5528183199
     Electric Quadrupole                           0.0000000786
     Magnetic Dipole                               0.0000000572
     Total Oscillator Strength                     0.5528184557

     Occ.   26  a   ---  Virt.   31  a    0.05527 X
     Occ.   26  a   ---  Virt.   33  a   -0.06847 X
     Occ.   27  a   ---  Virt.   30  a    0.18491 X
     Occ.   28  a   ---  Virt.   30  a   -0.87892 X
     Occ.   28  a   ---  Virt.   30  a    0.09747 Y
     Occ.   29  a   ---  Virt.   31  a    0.35212 X
     Occ.   29  a   ---  Virt.   31  a   -0.07444 Y
     Occ.   29  a   ---  Virt.   32  a   -0.16495 X
     Occ.   29  a   ---  Virt.   33  a    0.12760 X
  ----------------------------------------------------------------------------
  Root   5 singlet a              0.259947171 a.u.                7.0735 eV 
  ----------------------------------------------------------------------------
     Transition Moments    X  0.02133   Y -1.06813   Z -0.00019
     Transition Moments   XX  0.00045  XY -0.01691  XZ -0.00969
     Transition Moments   YY  0.00001  YZ -0.05675  ZZ -0.00027
     Dipole Oscillator Strength                    0.1977933183
     Electric Quadrupole                           0.0000000003
     Magnetic Dipole                               0.0000004095
     Total Oscillator Strength                     0.1977937282

     Occ.   24  a   ---  Virt.   30  a   -0.05985 X
     Occ.   26  a   ---  Virt.   30  a   -0.28009 X
     Occ.   26  a   ---  Virt.   35  a   -0.05947 X
     Occ.   26  a   ---  Virt.   36  a    0.05129 X
     Occ.   27  a   ---  Virt.   33  a   -0.05697 X
     Occ.   28  a   ---  Virt.   31  a   -0.82664 X
     Occ.   28  a   ---  Virt.   33  a    0.09049 X
     Occ.   29  a   ---  Virt.   30  a   -0.31438 X
     Occ.   29  a   ---  Virt.   30  a    0.09052 Y
     Occ.   29  a   ---  Virt.   35  a   -0.30830 X
     Occ.   29  a   ---  Virt.   36  a    0.10741 X
  ----------------------------------------------------------------------------
  Root   6 singlet a              0.260983450 a.u.                7.1017 eV 
  ----------------------------------------------------------------------------
     Transition Moments    X -0.34554   Y  0.01707   Z  0.07805
     Transition Moments   XX  0.04606  XY -0.03398  XZ  0.28539
     Transition Moments   YY -0.02239  YZ -0.00466  ZZ  0.01217
     Dipole Oscillator Strength                    0.0218845169
     Electric Quadrupole                           0.0000000079
     Magnetic Dipole                               0.0000005403
     Total Oscillator Strength                     0.0218850651

     Occ.   20  a   ---  Virt.   30  a    0.07027 X
     Occ.   25  a   ---  Virt.   30  a    0.20993 X
     Occ.   27  a   ---  Virt.   30  a    0.94590 X
     Occ.   28  a   ---  Virt.   30  a    0.16322 X
     Occ.   29  a   ---  Virt.   31  a   -0.06871 X
     Occ.   29  a   ---  Virt.   33  a   -0.09262 X
     Occ.   29  a   ---  Virt.   34  a    0.07144 X
  ----------------------------------------------------------------------------
  Root   7 singlet a              0.266437240 a.u.                7.2501 eV 
  ----------------------------------------------------------------------------
     Transition Moments    X -0.44618   Y  0.00689   Z  0.04762
     Transition Moments   XX -2.65157  XY  0.09634  XZ -0.53821
     Transition Moments   YY  0.72135  YZ  0.02029  ZZ -0.00321
     Dipole Oscillator Strength                    0.0357718190
     Electric Quadrupole                           0.0000003477
     Magnetic Dipole                               0.0000007815
     Total Oscillator Strength                     0.0357729482

     Occ.   24  a   ---  Virt.   33  a    0.06567 X
     Occ.   26  a   ---  Virt.   31  a   -0.13458 X
     Occ.   26  a   ---  Virt.   33  a   -0.26679 X
     Occ.   27  a   ---  Virt.   30  a    0.07437 X
     Occ.   27  a   ---  Virt.   31  a    0.14499 X
     Occ.   27  a   ---  Virt.   33  a    0.06671 X
     Occ.   28  a   ---  Virt.   30  a    0.15651 X
     Occ.   29  a   ---  Virt.   32  a    0.05158 X
     Occ.   29  a   ---  Virt.   33  a    0.91122 X
     Occ.   29  a   ---  Virt.   41  a   -0.05342 X
  ----------------------------------------------------------------------------
  Root   8 singlet a              0.268517579 a.u.                7.3067 eV 
  ----------------------------------------------------------------------------
     Transition Moments    X  0.04088   Y  0.01149   Z -0.01214
     Transition Moments   XX  0.29635  XY  0.40588  XZ  0.04623
     Transition Moments   YY -0.08609  YZ  0.13621  ZZ  0.00811
     Dipole Oscillator Strength                    0.0003491381
     Electric Quadrupole                           0.0000000232
     Magnetic Dipole                               0.0000009144
     Total Oscillator Strength                     0.0003500757

     Occ.   25  a   ---  Virt.   31  a    0.05494 X
     Occ.   25  a   ---  Virt.   33  a   -0.08766 X
     Occ.   26  a   ---  Virt.   33  a    0.05020 X
     Occ.   27  a   ---  Virt.   31  a    0.90373 X
     Occ.   27  a   ---  Virt.   32  a   -0.12201 X
     Occ.   27  a   ---  Virt.   33  a    0.24599 X
     Occ.   27  a   ---  Virt.   34  a   -0.08056 X
     Occ.   27  a   ---  Virt.   39  a   -0.15246 X
     Occ.   29  a   ---  Virt.   33  a   -0.15415 X
     Occ.   29  a   ---  Virt.   34  a   -0.06004 X
     Occ.   29  a   ---  Virt.   35  a   -0.14862 X
  ----------------------------------------------------------------------------
  Root   9 singlet a              0.269307200 a.u.                7.3282 eV 
  ----------------------------------------------------------------------------
     Transition Moments    X -0.00863   Y  0.53648   Z  0.01409
     Transition Moments   XX  0.08457  XY  0.39648  XZ  0.13455
     Transition Moments   YY  0.00017  YZ -0.24125  ZZ -0.00032
     Dipole Oscillator Strength                    0.0517214628
     Electric Quadrupole                           0.0000000245
     Magnetic Dipole                               0.0000001288
     Total Oscillator Strength                     0.0517216162

     Occ.   26  a   ---  Virt.   30  a    0.06603 X
     Occ.   26  a   ---  Virt.   35  a   -0.14248 X
     Occ.   26  a   ---  Virt.   36  a    0.12279 X
     Occ.   27  a   ---  Virt.   31  a   -0.15333 X
     Occ.   28  a   ---  Virt.   31  a    0.28935 X
     Occ.   28  a   ---  Virt.   32  a   -0.17609 X
     Occ.   28  a   ---  Virt.   34  a    0.06444 X
     Occ.   29  a   ---  Virt.   30  a    0.11944 X
     Occ.   29  a   ---  Virt.   34  a    0.13774 X
     Occ.   29  a   ---  Virt.   35  a   -0.85801 X
     Occ.   29  a   ---  Virt.   36  a    0.18161 X
  ----------------------------------------------------------------------------
  Root  10 singlet a              0.269722009 a.u.                7.3395 eV 
  ----------------------------------------------------------------------------
     Transition Moments    X  0.10062   Y  0.07409   Z -0.11170
     Transition Moments   XX -0.30977  XY  0.01712  XZ -1.00354
     Transition Moments   YY -0.09879  YZ -0.04076  ZZ -0.01093
     Dipole Oscillator Strength                    0.0050510801
     Electric Quadrupole                           0.0000001079
     Magnetic Dipole                               0.0000011991
     Total Oscillator Strength                     0.0050523871

     Occ.   26  a   ---  Virt.   31  a   -0.07035 X
     Occ.   26  a   ---  Virt.   32  a   -0.11456 X
     Occ.   26  a   ---  Virt.   37  a    0.10232 X
     Occ.   27  a   ---  Virt.   30  a    0.07216 X
     Occ.   27  a   ---  Virt.   31  a   -0.08177 X
     Occ.   28  a   ---  Virt.   35  a    0.05644 X
     Occ.   29  a   ---  Virt.   32  a    0.15375 X
     Occ.   29  a   ---  Virt.   34  a   -0.93709 X
     Occ.   29  a   ---  Virt.   35  a   -0.11839 X
     Occ.   29  a   ---  Virt.   37  a    0.09604 X
     Occ.   29  a   ---  Virt.   40  a    0.07150 X
     Occ.   29  a   ---  Virt.   42  a    0.07961 X
  ----------------------------------------------------------------------------
  Root  11 singlet a              0.292171684 a.u.                7.9504 eV 
  ----------------------------------------------------------------------------
     Transition Moments    X -0.00178   Y  0.01653   Z  0.00081
     Transition Moments   XX -0.15059  XY -0.77318  XZ -0.00951
     Transition Moments   YY  0.04216  YZ -0.06890  ZZ  0.00213
     Dipole Oscillator Strength                    0.0000540020
     Electric Quadrupole                           0.0000000814
     Magnetic Dipole                               0.0000035579
     Total Oscillator Strength                     0.0000576413

     Occ.   20  a   ---  Virt.   33  a    0.05713 X
     Occ.   25  a   ---  Virt.   31  a    0.15062 X
     Occ.   25  a   ---  Virt.   33  a    0.13617 X
     Occ.   26  a   ---  Virt.   30  a    0.36605 X
     Occ.   27  a   ---  Virt.   31  a    0.20999 X
     Occ.   27  a   ---  Virt.   32  a   -0.15144 X
     Occ.   27  a   ---  Virt.   33  a   -0.84449 X
     Occ.   27  a   ---  Virt.   34  a    0.11202 X
     Occ.   27  a   ---  Virt.   39  a   -0.10416 X
     Occ.   28  a   ---  Virt.   31  a   -0.05487 X
  ----------------------------------------------------------------------------
  Root  12 singlet a              0.300166368 a.u.                8.1679 eV 
  ----------------------------------------------------------------------------
     Transition Moments    X -0.00067   Y -0.91796   Z  0.00687
     Transition Moments   XX  0.04994  XY  1.70477  XZ  0.00339
     Transition Moments   YY -0.01320  YZ -0.17591  ZZ -0.00003
     Dipole Oscillator Strength                    0.1686333619
     Electric Quadrupole                           0.0000004232
     Magnetic Dipole                               0.0000002794
     Total Oscillator Strength                     0.1686340645

     Occ.   25  a   ---  Virt.   31  a   -0.05607 X
     Occ.   26  a   ---  Virt.   30  a    0.85676 X
     Occ.   27  a   ---  Virt.   31  a   -0.06939 X
     Occ.   27  a   ---  Virt.   32  a    0.08147 X
     Occ.   27  a   ---  Virt.   33  a    0.32531 X
     Occ.   27  a   ---  Virt.   34  a   -0.08505 X
     Occ.   27  a   ---  Virt.   37  a   -0.05376 X
     Occ.   28  a   ---  Virt.   31  a   -0.29615 X
     Occ.   28  a   ---  Virt.   32  a   -0.11268 X
     Occ.   28  a   ---  Virt.   34  a    0.09745 X
     Occ.   29  a   ---  Virt.   30  a   -0.05997 X
  ----------------------------------------------------------------------------
  Root  13 singlet a              0.305799535 a.u.                8.3212 eV 
  ----------------------------------------------------------------------------
     Transition Moments    X -0.00260   Y -0.18130   Z  0.00085
     Transition Moments   XX  0.00853  XY  0.65610  XZ  0.00012
     Transition Moments   YY -0.00217  YZ  1.15889  ZZ  0.00022
     Dipole Oscillator Strength                    0.0067024384
     Electric Quadrupole                           0.0000002701
     Magnetic Dipole                               0.0000006884
     Total Oscillator Strength                     0.0067033969

     Occ.   23  a   ---  Virt.   35  a   -0.09161 X
     Occ.   26  a   ---  Virt.   30  a    0.15776 X
     Occ.   26  a   ---  Virt.   35  a    0.08791 X
     Occ.   26  a   ---  Virt.   36  a    0.10944 X
     Occ.   28  a   ---  Virt.   32  a    0.69530 X
     Occ.   28  a   ---  Virt.   33  a   -0.16215 X
     Occ.   28  a   ---  Virt.   34  a   -0.61160 X
     Occ.   28  a   ---  Virt.   40  a    0.05459 X
     Occ.   29  a   ---  Virt.   35  a   -0.15156 X
     Occ.   29  a   ---  Virt.   36  a    0.05440 X
     Occ.   29  a   ---  Virt.   38  a    0.12190 X
  ----------------------------------------------------------------------------
  Root  14 singlet a              0.311779980 a.u.                8.4840 eV 
  ----------------------------------------------------------------------------
     Transition Moments    X -0.00155   Y -0.02879   Z -0.20053
     Transition Moments   XX  0.03888  XY  0.04611  XZ  0.04814
     Transition Moments   YY -0.01891  YZ  0.00498  ZZ -0.03065
     Dipole Oscillator Strength                    0.0085311839
     Electric Quadrupole                           0.0000000009
     Magnetic Dipole                               0.0000006543
     Total Oscillator Strength                     0.0085318391

     Occ.   17  a   ---  Virt.   30  a   -0.05356 X
     Occ.   19  a   ---  Virt.   39  a   -0.05104 X
     Occ.   20  a   ---  Virt.   30  a    0.06209 X
     Occ.   25  a   ---  Virt.   30  a   -0.95416 X
     Occ.   26  a   ---  Virt.   34  a   -0.05512 X
     Occ.   27  a   ---  Virt.   30  a    0.21013 X
     Occ.   28  a   ---  Virt.   35  a    0.12052 X
     Occ.   29  a   ---  Virt.   37  a    0.07890 X
  ----------------------------------------------------------------------------
  Root  15 singlet a              0.315110009 a.u.                8.5746 eV 
  ----------------------------------------------------------------------------
     Transition Moments    X  0.00176   Y  0.15073   Z  0.00144
     Transition Moments   XX -0.07924  XY  0.37710  XZ  0.00650
     Transition Moments   YY  0.02063  YZ  0.05345  ZZ  0.00251
     Dipole Oscillator Strength                    0.0047741658
     Electric Quadrupole                           0.0000000246
     Magnetic Dipole                               0.0000000995
     Total Oscillator Strength                     0.0047742899

     Occ.   26  a   ---  Virt.   30  a    0.06555 X
     Occ.   26  a   ---  Virt.   35  a   -0.23368 X
     Occ.   26  a   ---  Virt.   38  a    0.13825 X
     Occ.   28  a   ---  Virt.   32  a   -0.07604 X
     Occ.   29  a   ---  Virt.   35  a    0.26786 X
     Occ.   29  a   ---  Virt.   36  a    0.88457 X
     Occ.   29  a   ---  Virt.   38  a    0.20561 X
  ----------------------------------------------------------------------------
  Root  16 singlet a              0.319852526 a.u.                8.7036 eV 
  ----------------------------------------------------------------------------
     Transition Moments    X -0.17317   Y -0.00003   Z -0.11379
     Transition Moments   XX  6.35655  XY -0.00103  XZ -0.37289
     Transition Moments   YY -2.47849  YZ  0.00221  ZZ -0.22805
     Dipole Oscillator Strength                    0.0091554609
     Electric Quadrupole                           0.0000036975
     Magnetic Dipole                               0.0000002028
     Total Oscillator Strength                     0.0091593612

     Occ.   23  a   ---  Virt.   31  a   -0.06499 X
     Occ.   24  a   ---  Virt.   31  a   -0.06370 X
     Occ.   24  a   ---  Virt.   34  a    0.05465 X
     Occ.   26  a   ---  Virt.   31  a    0.93687 X
     Occ.   26  a   ---  Virt.   32  a   -0.08998 X
     Occ.   26  a   ---  Virt.   33  a   -0.14039 X
     Occ.   28  a   ---  Virt.   30  a    0.08410 X
     Occ.   28  a   ---  Virt.   35  a    0.10316 X
     Occ.   29  a   ---  Virt.   33  a    0.09857 X
     Occ.   29  a   ---  Virt.   34  a   -0.05034 X
     Occ.   29  a   ---  Virt.   37  a    0.05029 X
     Occ.   29  a   ---  Virt.   39  a    0.14052 X
  ----------------------------------------------------------------------------
  Root  17 singlet a              0.322805609 a.u.                8.7840 eV 
  ----------------------------------------------------------------------------
     Transition Moments    X  0.08955   Y  0.00232   Z -0.29810
     Transition Moments   XX -0.71508  XY  0.03323  XZ -0.24433
     Transition Moments   YY  0.38515  YZ  0.00945  ZZ -0.00163
     Dipole Oscillator Strength                    0.0208512511
     Electric Quadrupole                           0.0000000667
     Magnetic Dipole                               0.0000000053
     Total Oscillator Strength                     0.0208513231

     Occ.   23  a   ---  Virt.   32  a   -0.08742 X
     Occ.   23  a   ---  Virt.   34  a    0.08174 X
     Occ.   24  a   ---  Virt.   32  a   -0.05271 X
     Occ.   25  a   ---  Virt.   30  a    0.15679 X
     Occ.   26  a   ---  Virt.   31  a   -0.10734 X
     Occ.   26  a   ---  Virt.   32  a    0.12823 X
     Occ.   26  a   ---  Virt.   34  a   -0.30393 X
     Occ.   28  a   ---  Virt.   35  a    0.71458 X
     Occ.   28  a   ---  Virt.   36  a    0.18540 X
     Occ.   28  a   ---  Virt.   38  a    0.06108 X
     Occ.   28  a   ---  Virt.   43  a    0.05014 X
     Occ.   29  a   ---  Virt.   34  a    0.09004 X
     Occ.   29  a   ---  Virt.   37  a    0.50149 X
     Occ.   29  a   ---  Virt.   41  a    0.07274 X
  ----------------------------------------------------------------------------
  Root  18 singlet a              0.326927518 a.u.                8.8962 eV 
  ----------------------------------------------------------------------------
     Transition Moments    X  0.00038   Y -0.14952   Z -0.00863
     Transition Moments   XX  0.00142  XY -0.04722  XZ -0.01697
     Transition Moments   YY -0.00117  YZ -0.47831  ZZ -0.00333
     Dipole Oscillator Strength                    0.0048889985
     Electric Quadrupole                           0.0000000430
     Magnetic Dipole                               0.0000000879
     Total Oscillator Strength                     0.0048891295

     Occ.   24  a   ---  Virt.   30  a   -0.08778 X
     Occ.   25  a   ---  Virt.   31  a   -0.10912 X
     Occ.   26  a   ---  Virt.   30  a    0.06159 X
     Occ.   26  a   ---  Virt.   36  a   -0.06159 X
     Occ.   28  a   ---  Virt.   31  a    0.13007 X
     Occ.   28  a   ---  Virt.   32  a    0.41423 X
     Occ.   28  a   ---  Virt.   33  a    0.82670 X
     Occ.   28  a   ---  Virt.   34  a    0.26810 X
     Occ.   28  a   ---  Virt.   37  a    0.06435 X
     Occ.   28  a   ---  Virt.   40  a    0.06395 X
     Occ.   28  a   ---  Virt.   41  a   -0.06087 X
  ----------------------------------------------------------------------------
  Root  19 singlet a              0.331056096 a.u.                9.0085 eV 
  ----------------------------------------------------------------------------
     Transition Moments    X -0.00329   Y  0.20510   Z -0.00026
     Transition Moments   XX  0.09060  XY  0.23615  XZ -0.00091
     Transition Moments   YY -0.03932  YZ  0.14214  ZZ -0.00119
     Dipole Oscillator Strength                    0.0092867465
     Electric Quadrupole                           0.0000000155
     Magnetic Dipole                               0.0000006602
     Total Oscillator Strength                     0.0092874223

     Occ.   19  a   ---  Virt.   30  a    0.05008 X
     Occ.   20  a   ---  Virt.   39  a    0.08952 X
     Occ.   21  a   ---  Virt.   30  a   -0.09701 X
     Occ.   23  a   ---  Virt.   30  a    0.16948 X
     Occ.   24  a   ---  Virt.   30  a   -0.51198 X
     Occ.   25  a   ---  Virt.   31  a   -0.77741 X
     Occ.   25  a   ---  Virt.   32  a    0.10841 X
     Occ.   25  a   ---  Virt.   33  a    0.12092 X
     Occ.   27  a   ---  Virt.   31  a    0.08198 X
     Occ.   27  a   ---  Virt.   32  a   -0.05649 X
     Occ.   27  a   ---  Virt.   33  a   -0.09643 X
     Occ.   27  a   ---  Virt.   39  a   -0.08024 X
     Occ.   28  a   ---  Virt.   32  a   -0.07170 X
     Occ.   28  a   ---  Virt.   33  a   -0.11915 X
  ----------------------------------------------------------------------------
  Root  20 singlet a              0.332629227 a.u.                9.0513 eV 
  ----------------------------------------------------------------------------
     Transition Moments    X  0.00021   Y  0.15886   Z  0.00068
     Transition Moments   XX -0.01460  XY  0.15549  XZ -0.00276
     Transition Moments   YY  0.00676  YZ -0.04781  ZZ -0.00102
     Dipole Oscillator Strength                    0.0055965993
     Electric Quadrupole                           0.0000000052
     Magnetic Dipole                               0.0000002095
     Total Oscillator Strength                     0.0055968140

     Occ.   15  a   ---  Virt.   30  a    0.05682 X
     Occ.   19  a   ---  Virt.   30  a    0.05832 X
     Occ.   21  a   ---  Virt.   30  a   -0.14260 X
     Occ.   22  a   ---  Virt.   39  a   -0.08250 X
     Occ.   23  a   ---  Virt.   30  a    0.23734 X
     Occ.   24  a   ---  Virt.   30  a   -0.75989 X
     Occ.   25  a   ---  Virt.   31  a    0.53418 X
     Occ.   25  a   ---  Virt.   32  a   -0.07943 X
     Occ.   25  a   ---  Virt.   33  a   -0.07919 X
     Occ.   27  a   ---  Virt.   39  a    0.09745 X
     Occ.   28  a   ---  Virt.   34  a   -0.06354 X
     Occ.   29  a   ---  Virt.   36  a    0.05135 X
  ----------------------------------------------------------------------------
  Root  21 singlet a              0.336420280 a.u.                9.1545 eV 
  ----------------------------------------------------------------------------
     Transition Moments    X -0.00054   Y -0.05314   Z  0.00039
     Transition Moments   XX  0.00112  XY -0.55241  XZ -0.00978
     Transition Moments   YY  0.00332  YZ -0.00427  ZZ -0.00252
     Dipole Oscillator Strength                    0.0006334453
     Electric Quadrupole                           0.0000000619
     Magnetic Dipole                               0.0000000192
     Total Oscillator Strength                     0.0006335264

     Occ.   24  a   ---  Virt.   30  a    0.06547 X
     Occ.   26  a   ---  Virt.   35  a    0.06233 X
     Occ.   28  a   ---  Virt.   32  a   -0.49955 X
     Occ.   28  a   ---  Virt.   33  a    0.49098 X
     Occ.   28  a   ---  Virt.   34  a   -0.67792 X
     Occ.   28  a   ---  Virt.   37  a   -0.08327 X
     Occ.   28  a   ---  Virt.   42  a    0.09422 X
     Occ.   29  a   ---  Virt.   36  a   -0.08144 X
  ----------------------------------------------------------------------------
  Root  22 singlet a              0.338098587 a.u.                9.2001 eV 
  ----------------------------------------------------------------------------
     Transition Moments    X -0.05109   Y  0.00398   Z  0.01280
     Transition Moments   XX -0.77052  XY -0.04041  XZ  0.28653
     Transition Moments   YY  0.20199  YZ -0.00782  ZZ  0.03774
     Dipole Oscillator Strength                    0.0006289099
     Electric Quadrupole                           0.0000000730
     Magnetic Dipole                               0.0000000096
     Total Oscillator Strength                     0.0006289925

     Occ.   24  a   ---  Virt.   31  a    0.05069 X
     Occ.   26  a   ---  Virt.   32  a    0.12955 X
     Occ.   26  a   ---  Virt.   34  a    0.15229 X
     Occ.   28  a   ---  Virt.   35  a    0.55659 X
     Occ.   28  a   ---  Virt.   36  a    0.11852 X
     Occ.   29  a   ---  Virt.   32  a   -0.09473 X
     Occ.   29  a   ---  Virt.   34  a   -0.06899 X
     Occ.   29  a   ---  Virt.   37  a   -0.77034 X
     Occ.   29  a   ---  Virt.   41  a   -0.08352 X
  ----------------------------------------------------------------------------
  Root  23 singlet a              0.352654814 a.u.                9.5962 eV 
  ----------------------------------------------------------------------------
     Transition Moments    X  0.00021   Y  0.09324   Z  0.00066
     Transition Moments   XX  0.02187  XY  0.66662  XZ -0.00501
     Transition Moments   YY  0.00156  YZ  0.42953  ZZ -0.00106
     Dipole Oscillator Strength                    0.0020438501
     Electric Quadrupole                           0.0000001469
     Magnetic Dipole                               0.0000002768
     Total Oscillator Strength                     0.0020442738

     Occ.   26  a   ---  Virt.   36  a    0.18973 X
     Occ.   26  a   ---  Virt.   38  a    0.06872 X
     Occ.   28  a   ---  Virt.   32  a   -0.06632 X
     Occ.   28  a   ---  Virt.   34  a    0.11381 X
     Occ.   28  a   ---  Virt.   37  a    0.08856 X
     Occ.   29  a   ---  Virt.   35  a    0.05187 X
     Occ.   29  a   ---  Virt.   36  a   -0.25500 X
     Occ.   29  a   ---  Virt.   38  a    0.91549 X
     Occ.   29  a   ---  Virt.   44  a   -0.08695 X
  ----------------------------------------------------------------------------
  Root  24 singlet a              0.354065334 a.u.                9.6346 eV 
  ----------------------------------------------------------------------------
     Transition Moments    X -0.03607   Y -0.00484   Z  0.16173
     Transition Moments   XX -1.19244  XY  0.09501  XZ  0.53686
     Transition Moments   YY  0.48337  YZ -0.00320  ZZ  0.12633
     Dipole Oscillator Strength                    0.0064869235
     Electric Quadrupole                           0.0000002544
     Magnetic Dipole                               0.0000002017
     Total Oscillator Strength                     0.0064873797

     Occ.   21  a   ---  Virt.   31  a    0.09069 X
     Occ.   21  a   ---  Virt.   33  a   -0.07277 X
     Occ.   23  a   ---  Virt.   31  a   -0.16381 X
     Occ.   23  a   ---  Virt.   32  a    0.17233 X
     Occ.   23  a   ---  Virt.   34  a    0.05887 X
     Occ.   24  a   ---  Virt.   31  a    0.78561 X
     Occ.   24  a   ---  Virt.   32  a    0.05423 X
     Occ.   26  a   ---  Virt.   31  a    0.08037 X
     Occ.   26  a   ---  Virt.   32  a    0.43943 X
     Occ.   26  a   ---  Virt.   33  a   -0.10233 X
     Occ.   26  a   ---  Virt.   34  a    0.08069 X
     Occ.   26  a   ---  Virt.   39  a    0.05436 X
     Occ.   28  a   ---  Virt.   35  a   -0.10238 X
     Occ.   29  a   ---  Virt.   32  a   -0.11096 X
     Occ.   29  a   ---  Virt.   34  a   -0.08474 X
     Occ.   29  a   ---  Virt.   37  a    0.09026 X
     Occ.   29  a   ---  Virt.   39  a   -0.12315 X
     Occ.   29  a   ---  Virt.   40  a   -0.06079 X
     Occ.   29  a   ---  Virt.   41  a    0.06394 X
     Occ.   29  a   ---  Virt.   42  a    0.05534 X
  ----------------------------------------------------------------------------
  Root  25 singlet a              0.356854996 a.u.                9.7105 eV 
  ----------------------------------------------------------------------------
     Transition Moments    X -0.04384   Y  0.05313   Z -0.21386
     Transition Moments   XX  2.24567  XY -0.75413  XZ -1.29599
     Transition Moments   YY -0.81852  YZ  0.03164  ZZ -0.17308
     Dipole Oscillator Strength                    0.0120100088
     Electric Quadrupole                           0.0000011758
     Magnetic Dipole                               0.0000010687
     Total Oscillator Strength                     0.0120122532

     Occ.   21  a   ---  Virt.   31  a    0.07866 X
     Occ.   21  a   ---  Virt.   33  a   -0.06681 X
     Occ.   23  a   ---  Virt.   31  a   -0.15419 X
     Occ.   23  a   ---  Virt.   32  a   -0.15322 X
     Occ.   23  a   ---  Virt.   34  a   -0.06260 X
     Occ.   24  a   ---  Virt.   31  a    0.46388 X
     Occ.   24  a   ---  Virt.   32  a   -0.25529 X
     Occ.   24  a   ---  Virt.   34  a   -0.07047 X
     Occ.   26  a   ---  Virt.   31  a   -0.08274 X
     Occ.   26  a   ---  Virt.   32  a   -0.59184 X
     Occ.   26  a   ---  Virt.   33  a   -0.07900 X
     Occ.   26  a   ---  Virt.   34  a   -0.05130 X
     Occ.   27  a   ---  Virt.   32  a    0.14324 X
     Occ.   27  a   ---  Virt.   33  a   -0.05600 X
     Occ.   27  a   ---  Virt.   34  a   -0.19296 X
     Occ.   27  a   ---  Virt.   37  a   -0.06977 X
     Occ.   28  a   ---  Virt.   35  a    0.09176 X
     Occ.   29  a   ---  Virt.   32  a    0.14841 X
     Occ.   29  a   ---  Virt.   33  a   -0.06703 X
     Occ.   29  a   ---  Virt.   34  a    0.12978 X
     Occ.   29  a   ---  Virt.   39  a    0.37246 X
  ----------------------------------------------------------------------------
  Root  26 singlet a              0.357354488 a.u.                9.7241 eV 
  ----------------------------------------------------------------------------
     Transition Moments    X -0.01307   Y -0.20628   Z -0.05915
     Transition Moments   XX  0.68307  XY  2.76966  XZ -0.37119
     Transition Moments   YY -0.25770  YZ -0.13710  ZZ -0.05284
     Dipole Oscillator Strength                    0.0110116786
     Electric Quadrupole                           0.0000019617
     Magnetic Dipole                               0.0000010367
     Total Oscillator Strength                     0.0110146769

     Occ.   19  a   ---  Virt.   35  a   -0.05978 X
     Occ.   23  a   ---  Virt.   30  a    0.06226 X
     Occ.   24  a   ---  Virt.   31  a    0.09635 X
     Occ.   24  a   ---  Virt.   32  a   -0.06972 X
     Occ.   25  a   ---  Virt.   32  a   -0.09116 X
     Occ.   25  a   ---  Virt.   37  a   -0.05065 X
     Occ.   26  a   ---  Virt.   32  a   -0.18363 X
     Occ.   27  a   ---  Virt.   31  a   -0.05406 X
     Occ.   27  a   ---  Virt.   32  a   -0.45520 X
     Occ.   27  a   ---  Virt.   33  a    0.21144 X
     Occ.   27  a   ---  Virt.   34  a    0.73758 X
     Occ.   27  a   ---  Virt.   37  a    0.26592 X
     Occ.   27  a   ---  Virt.   40  a   -0.10201 X
     Occ.   27  a   ---  Virt.   41  a    0.07557 X
     Occ.   29  a   ---  Virt.   39  a    0.11067 X
  ----------------------------------------------------------------------------
  Root  27 singlet a              0.364946313 a.u.                9.9307 eV 
  ----------------------------------------------------------------------------
     Transition Moments    X -0.03856   Y  0.00269   Z  0.09077
     Transition Moments   XX  2.72813  XY -0.03260  XZ  0.10886
     Transition Moments   YY -1.43863  YZ -0.00641  ZZ -0.18480
     Dipole Oscillator Strength                    0.0023678795
     Electric Quadrupole                           0.0000011862
     Magnetic Dipole                               0.0000001929
     Total Oscillator Strength                     0.0023692585

     Occ.   22  a   ---  Virt.   30  a    0.10691 X
     Occ.   23  a   ---  Virt.   31  a    0.28406 X
     Occ.   23  a   ---  Virt.   32  a    0.06501 X
     Occ.   24  a   ---  Virt.   31  a   -0.06000 X
     Occ.   24  a   ---  Virt.   32  a    0.14434 X
     Occ.   24  a   ---  Virt.   33  a    0.05713 X
     Occ.   26  a   ---  Virt.   31  a   -0.11048 X
     Occ.   26  a   ---  Virt.   32  a    0.31726 X
     Occ.   26  a   ---  Virt.   33  a   -0.15269 X
     Occ.   27  a   ---  Virt.   35  a   -0.06324 X
     Occ.   28  a   ---  Virt.   35  a   -0.06102 X
     Occ.   28  a   ---  Virt.   36  a    0.06990 X
     Occ.   29  a   ---  Virt.   31  a   -0.05891 X
     Occ.   29  a   ---  Virt.   32  a   -0.06989 X
     Occ.   29  a   ---  Virt.   39  a    0.82846 X
     Occ.   29  a   ---  Virt.   42  a    0.05705 X
  ----------------------------------------------------------------------------
  Root  28 singlet a              0.370422856 a.u.               10.0797 eV 
  ----------------------------------------------------------------------------
     Transition Moments    X  0.00645   Y  0.00724   Z  0.01326
     Transition Moments   XX  0.48782  XY  0.00093  XZ  0.75796
     Transition Moments   YY -0.10501  YZ -0.00257  ZZ -0.06938
     Dipole Oscillator Strength                    0.0000666315
     Electric Quadrupole                           0.0000001854
     Magnetic Dipole                               0.0000035638
     Total Oscillator Strength                     0.0000703807

     Occ.   16  a   ---  Virt.   39  a   -0.05695 X
     Occ.   19  a   ---  Virt.   31  a    0.05270 X
     Occ.   22  a   ---  Virt.   30  a   -0.93245 X
     Occ.   23  a   ---  Virt.   39  a    0.05248 X
     Occ.   24  a   ---  Virt.   31  a   -0.07463 X
     Occ.   24  a   ---  Virt.   33  a    0.06535 X
     Occ.   24  a   ---  Virt.   39  a   -0.07299 X
     Occ.   26  a   ---  Virt.   33  a   -0.08328 X
     Occ.   26  a   ---  Virt.   34  a   -0.06782 X
     Occ.   28  a   ---  Virt.   35  a   -0.07446 X
     Occ.   28  a   ---  Virt.   36  a    0.24839 X
     Occ.   28  a   ---  Virt.   38  a   -0.07424 X
  ----------------------------------------------------------------------------
  Root  29 singlet a              0.373740902 a.u.               10.1700 eV 
  ----------------------------------------------------------------------------
     Transition Moments    X  0.03681   Y  0.00002   Z  0.01854
     Transition Moments   XX -0.10581  XY  0.03828  XZ  0.16342
     Transition Moments   YY -0.15618  YZ  0.00562  ZZ  0.01474
     Dipole Oscillator Strength                    0.0004232825
     Electric Quadrupole                           0.0000000100
     Magnetic Dipole                               0.0000010108
     Total Oscillator Strength                     0.0004243033

     Occ.   21  a   ---  Virt.   31  a    0.05662 X
     Occ.   21  a   ---  Virt.   33  a    0.05002 X
     Occ.   22  a   ---  Virt.   30  a   -0.29080 X
     Occ.   23  a   ---  Virt.   33  a   -0.06217 X
     Occ.   23  a   ---  Virt.   34  a   -0.05508 X
     Occ.   23  a   ---  Virt.   37  a   -0.06731 X
     Occ.   24  a   ---  Virt.   33  a   -0.15579 X
     Occ.   26  a   ---  Virt.   32  a    0.09628 X
     Occ.   26  a   ---  Virt.   33  a    0.29646 X
     Occ.   26  a   ---  Virt.   34  a    0.17859 X
     Occ.   26  a   ---  Virt.   37  a    0.10320 X
     Occ.   28  a   ---  Virt.   35  a    0.22282 X
     Occ.   28  a   ---  Virt.   36  a   -0.75877 X
     Occ.   28  a   ---  Virt.   38  a    0.19237 X
     Occ.   29  a   ---  Virt.   32  a   -0.05847 X
     Occ.   29  a   ---  Virt.   33  a    0.11637 X
     Occ.   29  a   ---  Virt.   37  a    0.07481 X
     Occ.   29  a   ---  Virt.   39  a    0.16301 X
     Occ.   29  a   ---  Virt.   40  a    0.06121 X
  ----------------------------------------------------------------------------
  Root  30 singlet a              0.374765080 a.u.               10.1979 eV 
  ----------------------------------------------------------------------------
     Transition Moments    X -0.00092   Y -0.34036   Z -0.00199
     Transition Moments   XX -0.00184  XY -2.00579  XZ  0.02204
     Transition Moments   YY  0.00142  YZ -0.00366  ZZ  0.00114
     Dipole Oscillator Strength                    0.0289446056
     Electric Quadrupole                           0.0000011278
     Magnetic Dipole                               0.0000000731
     Total Oscillator Strength                     0.0289458064

     Occ.   23  a   ---  Virt.   30  a    0.93224 X
     Occ.   24  a   ---  Virt.   30  a    0.29432 X
     Occ.   26  a   ---  Virt.   35  a    0.07695 X
     Occ.   27  a   ---  Virt.   32  a    0.06920 X

              Target root =      1
          Target symmetry = none
      Ground state energy =   -362.576723251609
        Excitation energy =      0.177660127080
     Excited state energy =   -362.399063124529

  stored tddft:energy   -362.39906312452916     

 Task  times  cpu:     2423.0s     wall:     2423.0s
 Summary of allocated global arrays
-----------------------------------
  No active global arrays


MA_summarize_allocated_blocks: starting scan ...
MA_summarize_allocated_blocks: scan completed: 0 heap blocks, 0 stack blocks
MA usage statistics:

	allocation statistics:
					      heap	     stack
					      ----	     -----
	current number of blocks	         0	         0
	maximum number of blocks	        17	        60
	current total bytes		         0	         0
	maximum total bytes		  20560608	  29932520
	maximum total K-bytes		     20561	     29933
	maximum total M-bytes		        21	        30


                                NWChem Input Module
                                -------------------




                                     CITATION
                                     --------
                Please cite the following reference when publishing
                           results obtained with NWChem:

          E. Apra, E. J. Bylaska, W. A. de Jong, N. Govind, K. Kowalski,
       T. P. Straatsma, M. Valiev, H. J. J. van Dam, Y. Alexeev, J. Anchell,
       V. Anisimov, F. W. Aquino, R. Atta-Fynn, J. Autschbach, N. P. Bauman,
     J. C. Becca, D. E. Bernholdt, K. Bhaskaran-Nair, S. Bogatko, P. Borowski,
         J. Boschen, J. Brabec, A. Bruner, E. Cauet, Y. Chen, G. N. Chuev,
      C. J. Cramer, J. Daily, M. J. O. Deegan, T. H. Dunning Jr., M. Dupuis,
   K. G. Dyall, G. I. Fann, S. A. Fischer, A. Fonari, H. Fruchtl, L. Gagliardi,
      J. Garza, N. Gawande, S. Ghosh, K. Glaesemann, A. W. Gotz, J. Hammond,
       V. Helms, E. D. Hermes, K. Hirao, S. Hirata, M. Jacquelin, L. Jensen,
   B. G. Johnson, H. Jonsson, R. A. Kendall, M. Klemm, R. Kobayashi, V. Konkov,
      S. Krishnamoorthy, M. Krishnan, Z. Lin, R. D. Lins, R. J. Littlefield,
      A. J. Logsdail, K. Lopata, W. Ma, A. V. Marenich, J. Martin del Campo,
   D. Mejia-Rodriguez, J. E. Moore, J. M. Mullin, T. Nakajima, D. R. Nascimento,
    J. A. Nichols, P. J. Nichols, J. Nieplocha, A. Otero-de-la-Roza, B. Palmer,
    A. Panyala, T. Pirojsirikul, B. Peng, R. Peverati, J. Pittner, L. Pollack,
   R. M. Richard, P. Sadayappan, G. C. Schatz, W. A. Shelton, D. W. Silverstein,
   D. M. A. Smith, T. A. Soares, D. Song, M. Swart, H. L. Taylor, G. S. Thomas,
            V. Tipparaju, D. G. Truhlar, K. Tsemekhman, T. Van Voorhis,
      A. Vazquez-Mayagoitia, P. Verma, O. Villa, A. Vishnu, K. D. Vogiatzis,
        D. Wang, J. H. Weare, M. J. Williamson, T. L. Windus, K. Wolinski,
        A. T. Wong, Q. Wu, C. Yang, Q. Yu, M. Zacharias, Z. Zhang, Y. Zhao,
                                and R. J. Harrison
                        "NWChem: Past, present, and future
                         J. Chem. Phys. 152, 184102 (2020)
                               doi:10.1063/5.0004997

                                      AUTHORS
                                      -------
  E. Apra, E. J. Bylaska, N. Govind, K. Kowalski, M. Valiev, D. Mejia-Rodriguez,
       A. Kunitsa, N. P. Bauman, A. Panyala, W. A. de Jong, T. P. Straatsma,
   H. J. J. van Dam, D. Wang, T. L. Windus, J. Hammond, J. Autschbach, A. Woods,
    K. Bhaskaran-Nair, J. Brabec, K. Lopata, S. A. Fischer, S. Krishnamoorthy,
     M. Jacquelin, W. Ma, M. Klemm, O. Villa, Y. Chen, V. Anisimov, F. Aquino,
     S. Hirata, M. T. Hackler, E. Hermes, L. Jensen, J. E. Moore, J. C. Becca,
      V. Konjkov, T. Risthaus, M. Malagoli, A. Marenich, A. Otero-de-la-Roza,
        J. Mullin, P. Nichols, R. Peverati, J. Pittner, Y. Zhao, P.-D. Fan,
        A. Fonari, M. J. Williamson, R. J. Harrison, J. R. Rehr, M. Dupuis,
     D. Silverstein, D. M. A. Smith, J. Nieplocha, V. Tipparaju, M. Krishnan,
     B. E. Van Kuiken, A. Vazquez-Mayagoitia, M. Swart, Q. Wu, T. Van Voorhis,
     A. A. Auer, M. Nooijen, L. D. Crosby, E. Brown, G. Cisneros, G. I. Fann,
   H. Fruchtl, J. Garza, K. Hirao, R. A. Kendall, J. A. Nichols, K. Tsemekhman,
    K. Wolinski, J. Anchell, D. E. Bernholdt, P. Borowski, T. Clark, D. Clerc,
   H. Dachsel, M. J. O. Deegan, K. Dyall, D. Elwood, E. Glendening, M. Gutowski,
   A. C. Hess, J. Jaffe, B. G. Johnson, J. Ju, R. Kobayashi, R. Kutteh, Z. Lin,
   R. Littlefield, X. Long, B. Meng, T. Nakajima, S. Niu, L. Pollack, M. Rosing,
   K. Glaesemann, G. Sandrone, M. Stave, H. Taylor, G. Thomas, J. H. van Lenthe,
                               A. T. Wong, Z. Zhang.

 Total times  cpu:     2423.0s     wall:     2423.0s
