12
CACTUS 3D  https://cactus.nci.nih.gov/chemical/structure/O%3Dc1cc%5BnH%5Dc%28%3DO%29%5BnH%5D1/sdf?get3d=true
O     -2.26760000    -0.89630000    -0.00110000
C     -1.20090000    -0.30870000    -0.00110000
C     -1.16490000     1.10650000     0.00010000
C      0.03110000     1.73330000     0.00050000
N      1.18310000     0.99490000    -0.00020000
H      2.04230000     1.44500000     0.00010000
C      1.13520000    -0.34970000    -0.00090000
O      2.17110000    -0.98630000    -0.00110000
N     -0.04320000    -1.00000000     0.00340000
H     -0.05970000    -1.96990000     0.00320000
H     -2.08170000     1.67730000     0.00030000
H      0.07820000     2.81220000     0.00110000
