 argument  1 = tddft.nw



============================== echo of input deck ==============================
echo
start lif_td
title "LiF LR-TDDFT, LC-wPBE mu=0.34272, 6-311G* Cartesian, PBE0 geometry"
scratch_dir /Users/bldrdge1/Downloads/repos/PlasMol/jobs/final/Step_1/lif
permanent_dir /Users/bldrdge1/Downloads/repos/PlasMol/jobs/final/Step_1/lif
memory total 2500 mb
charge 0

geometry units angstroms noautosym noautoz
  Li    -1.17511786     0.00000000     0.00000000
  F      0.38511786    -0.00000000    -0.00000000
end

basis cartesian
  * library 6-311G*
end

dft
  xc xwpbe 1.00 cpbe96 1.0 hfexch 1.00
  cam 0.34272 cam_alpha 0.00 cam_beta 1.00
  mult 1
  grid fine
  iterations 100
  convergence energy 1.0e-7
end

tddft
  nroots 12
  notriplet
end

task tddft energy
================================================================================


                                         
                                         


             Northwest Computational Chemistry Package (NWChem) 7.2.3
             --------------------------------------------------------


                    Environmental Molecular Sciences Laboratory
                       Pacific Northwest National Laboratory
                                Richland, WA 99352

                              Copyright (c) 1994-2022
                       Pacific Northwest National Laboratory
                            Battelle Memorial Institute

             NWChem is an open-source computational chemistry package
                        distributed under the terms of the
                      Educational Community License (ECL) 2.0
             A copy of the license is included with this distribution
                              in the LICENSE.TXT file

                                  ACKNOWLEDGMENT
                                  --------------

            This software and its documentation were developed at the
            EMSL at Pacific Northwest National Laboratory, a multiprogram
            national laboratory, operated for the U.S. Department of Energy
            by Battelle under Contract Number DE-AC05-76RL01830. Support
            for this work was provided by the Department of Energy Office
            of Biological and Environmental Research, Office of Basic
            Energy Sciences, and the Office of Advanced Scientific Computing.


           Job information
           ---------------

    hostname        = CAS-X1HWX6T0HY
    program         = /opt/homebrew/bin/nwchem
    date            = Wed Sep 23 14:44:56 2026

    compiled        = Thu_Dec_26_16:10:57_2024
    source          = /private/tmp/nwchem-20241226-24138-dbs3bh/nwchem-7.2.3
    nwchem branch   = 7.2.3
    nwchem revision = d690e065
    ga revision     = 5.8.0
    use scalapack   = T
    input           = tddft.nw
    prefix          = lif_td.
    data base       = /Users/bldrdge1/Downloads/repos/PlasMol/jobs/final/Step_1/lif/lif_td.db
    status          = startup
    nproc           =        1
    time left       =     -1s



           Memory information
           ------------------

    heap     =   81919996 doubles =    625.0 Mbytes
    stack    =   81920001 doubles =    625.0 Mbytes
    global   =  163840000 doubles =   1250.0 Mbytes (distinct from heap & stack)
    total    =  327679997 doubles =   2500.0 Mbytes
    verify   = yes
    hardfail = no 


           Directory information
           ---------------------

  0 permanent = /Users/bldrdge1/Downloads/repos/PlasMol/jobs/final/Step_1/lif
  0 scratch   = /Users/bldrdge1/Downloads/repos/PlasMol/jobs/final/Step_1/lif




                                NWChem Input Module
                                -------------------


        LiF LR-TDDFT, LC-wPBE mu=0.34272, 6-311G* Cartesian, PBE0 geometry
        ------------------------------------------------------------------

 Scaling coordinates for geometry "geometry" by  1.889725989
 (inverse scale =  0.529177249)



                             Geometry "geometry" -> ""
                             -------------------------

 Output coordinates in angstroms (scale by  1.889725989 to convert to a.u.)

  No.       Tag          Charge          X              Y              Z
 ---- ---------------- ---------- -------------- -------------- --------------
    1 Li                   3.0000    -1.17017679     0.00000000     0.00000000
    2 F                    9.0000     0.39005893     0.00000000     0.00000000

      Atomic Mass 
      ----------- 

      Li                 7.016000
      F                 18.998400


 Effective nuclear repulsion energy (a.u.)       9.1574532872

            Nuclear Dipole moment (a.u.) 
            ----------------------------
        X                 Y               Z
 ---------------- ---------------- ----------------
    -0.0000000000     0.0000000000     0.0000000000


            XYZ format geometry
            -------------------
     2
 geometry
 Li                   -1.17017679     0.00000000     0.00000000
 F                     0.39005893     0.00000000     0.00000000

 ==============================================================================
                                internuclear distances
 ------------------------------------------------------------------------------
       center one      |      center two      | atomic units |  angstroms
 ------------------------------------------------------------------------------
    2 F                |   1 Li               |     2.94842  |     1.56024
 ------------------------------------------------------------------------------
                         number of included internuclear distances:          1
 ==============================================================================



  library name resolved from: .nwchemrc
  library file name is: </opt/homebrew/Cellar/nwchem/7.2.3_1/share/nwchem/libraries/>
  


 Summary of "ao basis" -> "" (cartesian)
 ------------------------------------------------------------------------------
       Tag                 Description            Shells   Functions and Types
 ---------------- ------------------------------  ------  ---------------------
 *                          6-311G*                   on all atoms 


  pbe96 is a nonlocal functional; adding pw91lda local functional. 

                                 NWChem DFT Module
                                 -----------------


        LiF LR-TDDFT, LC-wPBE mu=0.34272, 6-311G* Cartesian, PBE0 geometry


                      Basis "ao basis" -> "ao basis" (cartesian)
                      -----
  Li (Lithium)
  ------------
            Exponent  Coefficients 
       -------------- ---------------------------------------------------------
  1 S  9.00460000E+02  0.002287
  1 S  1.34433000E+02  0.017635
  1 S  3.04365000E+01  0.087343
  1 S  8.62639000E+00  0.280977
  1 S  2.48332000E+00  0.658741
  1 S  3.03179000E-01  0.118712

  2 S  4.86890000E+00  0.093329
  2 S  8.56924000E-01  0.943045
  2 S  2.43227000E-01 -0.002798

  3 P  4.86890000E+00  0.032766
  3 P  8.56924000E-01  0.159792
  3 P  2.43227000E-01  0.885667

  4 S  6.35070000E-02  1.000000

  5 P  6.35070000E-02  1.000000

  6 S  2.43683000E-02  1.000000

  7 P  2.43683000E-02  1.000000

  8 D  2.00000000E-01  1.000000

  F (Fluorine)
  ------------
            Exponent  Coefficients 
       -------------- ---------------------------------------------------------
  1 S  1.14271000E+04  0.001801
  1 S  1.72235000E+03  0.013742
  1 S  3.95746000E+02  0.068133
  1 S  1.15139000E+02  0.233325
  1 S  3.36026000E+01  0.589086
  1 S  4.91901000E+00  0.299505

  2 S  5.54441000E+01  0.114536
  2 S  1.26323000E+01  0.920512
  2 S  3.71756000E+00 -0.003378

  3 P  5.54441000E+01  0.035461
  3 P  1.26323000E+01  0.237451
  3 P  3.71756000E+00  0.820458

  4 S  1.16545000E+00  1.000000

  5 P  1.16545000E+00  1.000000

  6 S  3.21892000E-01  1.000000

  7 P  3.21892000E-01  1.000000

  8 D  1.75000000E+00  1.000000



 Summary of "ao basis" -> "ao basis" (cartesian)
 ------------------------------------------------------------------------------
       Tag                 Description            Shells   Functions and Types
 ---------------- ------------------------------  ------  ---------------------
 Li                         6-311G*                  8       19   4s3p1d
 F                          6-311G*                  8       19   4s3p1d




 Summary of "ao basis" -> "ao basis" (cartesian)
 ------------------------------------------------------------------------------
       Tag                 Description            Shells   Functions and Types
 ---------------- ------------------------------  ------  ---------------------
 Li                         6-311G*                  8       19   4s3p1d
 F                          6-311G*                  8       19   4s3p1d


  int_init: cando_txs set to always be  F
  Caching 1-el integrals 

            General Information
            -------------------
          SCF calculation type: DFT
          Wavefunction type:  closed shell.
          No. of atoms     :     2
          No. of electrons :    12
           Alpha electrons :     6
            Beta electrons :     6
          Charge           :     0
          Spin multiplicity:     1
          Use of symmetry is: off; symmetry adaption is: off
          Maximum number of iterations: 100
          AO basis - number of functions:    38
                     number of shells:    16
          Convergence on energy requested:  1.00D-07
          Convergence on density requested:  1.00D-05
          Convergence on gradient requested:  5.00D-04

              XC Information
              --------------
                     Hartree-Fock (Exact) Exchange  1.000          
                     LC-wPBE(h)Exchange Functional  1.000          
            Perdew 1991 LDA Correlation Functional  1.000 local    
           PerdewBurkeErnz. Correlation Functional  1.000 non-local

           Range-Separation Parameters        
           ---------------------------
           Alpha           :  0.00
           Beta            :  1.00
           Gamma           :  0.34
           Short-Range HF  :     F

             Grid Information
             ----------------
          Grid used for XC integration:  fine      
          Radial quadrature: Mura-Knowles        
          Angular quadrature: Lebedev. 
          Tag              B.-S. Rad. Rad. Pts. Rad. Cut. Ang. Pts.
          ---              ---------- --------- --------- ---------
          Li                  1.45       70          11.0       590
          F                   0.50       70           7.0       590
          Grid pruning is: on 
          Number of quadrature shells:   140
          Spatial weights used:  Erf1

          Convergence Information
          -----------------------
          Convergence aids based upon iterative change in 
          total energy or number of iterations. 
          Levelshifting, if invoked, occurs when the 
          HOMO/LUMO gap drops below (HL_TOL):  1.00D-02
          DIIS, if invoked, will attempt to extrapolate 
          using up to (NFOCK): 10 stored Fock matrices.

                    Damping( 0%)  Levelshifting(0.5)       DIIS
                  --------------- ------------------- ---------------
          dE  on:    start            ASAP                start   
          dE off:    2 iters        100 iters           100 iters 


      Screening Tolerance Information
      -------------------------------
          Density screening/tol_rho:  1.00D-10
          AO Gaussian exp screening on grid/accAOfunc:  16
          CD Gaussian exp screening on grid/accCDfunc:  20
          XC Gaussian exp screening on grid/accXCfunc:  20
          Schwarz screening/accCoul:  1.00D-08

  
  CAM type calculations without CDFIT are
  only available with the direct option.
  Forcing Direct SCF
  

      Superposition of Atomic Density Guess
      -------------------------------------

 Sum of atomic energies:        -106.83727920

      Non-variational initial energy
      ------------------------------

 Total energy =    -106.562896
 1-e energy   =    -166.668032
 2-e energy   =      50.947683
 HOMO         =      -0.661581
 LUMO         =      -0.058271

  WARNING: movecs_in_org=atomic not equal to movecs_in=/Users/bldrdge1/Downloads/repos/PlasMol/jobs/final/Step_1/lif/lif_td.movecs
   Time after variat. SCF:      0.0
   Time prior to 1st pass:      0.0

 Grid_pts file          = /Users/bldrdge1/Downloads/repos/PlasMol/jobs/final/Step_1/lif/lif_td.gridpts.0
 Record size in doubles =  12289        No. of grid_pts per rec  =   3070
 Max. records in memory =     31        Max. recs in file   =    848952


           Memory utilization after 1st SCF pass: 
           Heap Space remaining (MW):       81.54            81538428
          Stack Space remaining (MW):       81.92            81919668

   convergence    iter        energy       DeltaE   RMS-Dens  Diis-err    time
 ---------------- ----- ----------------- --------- --------- ---------  ------
 d= 0,ls=0.0,diis     1   -107.2633872267 -1.16D+02  2.04D-02  1.09D+00     0.1
 d= 0,ls=0.0,diis     2   -107.2317214083  3.17D-02  1.00D-02  1.94D+00     0.3
 d= 0,ls=0.0,diis     3   -107.3604122303 -1.29D-01  7.76D-04  1.36D-03     0.4
 d= 0,ls=0.0,diis     4   -107.3606489233 -2.37D-04  1.88D-04  8.01D-05     0.5
 d= 0,ls=0.0,diis     5   -107.3606620168 -1.31D-05  5.08D-05  2.32D-06     0.6
 d= 0,ls=0.0,diis     6   -107.3606627339 -7.17D-07  1.20D-05  5.50D-08     0.7
 d= 0,ls=0.0,diis     7   -107.3606627712 -3.74D-08  4.24D-06  4.60D-09     0.9


         Total DFT energy =     -107.360662771235
      One electron energy =     -169.373920659298
           Coulomb energy =       65.207042927239
    Exchange-Corr. energy =      -12.351238326422
 Nuclear repulsion energy =        9.157453287245

 Numeric. integr. density =       11.999999678487

     Total iterative time =      0.8s



                       DFT Final Molecular Orbital Analysis
                       ------------------------------------

 Vector    1  Occ=2.000000D+00  E=-2.425478D+01
              MO Center=  3.9D-01, -2.8D-15,  2.1D-16, r^2= 1.2D-02
   Bfn.  Coefficient  Atom+Function         Bfn.  Coefficient  Atom+Function  
  ----- ------------  ---------------      ----- ------------  ---------------
    20      0.548683  2 F  s                 21      0.467408  2 F  s          

 Vector    2  Occ=2.000000D+00  E=-2.035291D+00
              MO Center= -1.2D+00, -1.9D-13, -2.7D-13, r^2= 1.3D-01
   Bfn.  Coefficient  Atom+Function         Bfn.  Coefficient  Atom+Function  
  ----- ------------  ---------------      ----- ------------  ---------------
     1      0.614997  1 Li s                  2      0.418956  1 Li s          
     6      0.034419  1 Li s                 29      0.029585  2 F  s          

 Vector    3  Occ=2.000000D+00  E=-1.073082D+00
              MO Center=  3.5D-01, -2.7D-12,  2.9D-12, r^2= 3.9D-01
   Bfn.  Coefficient  Atom+Function         Bfn.  Coefficient  Atom+Function  
  ----- ------------  ---------------      ----- ------------  ---------------
    25      0.610289  2 F  s                 29      0.503475  2 F  s          
    21     -0.207134  2 F  s                 20     -0.127266  2 F  s          
     1     -0.046588  1 Li s                  2     -0.042448  1 Li s          
     6      0.029029  1 Li s                  3      0.028383  1 Li px         

 Vector    4  Occ=2.000000D+00  E=-3.835812D-01
              MO Center=  3.9D-01, -2.9D-12, -9.3D-12, r^2= 5.6D-01
   Bfn.  Coefficient  Atom+Function         Bfn.  Coefficient  Atom+Function  
  ----- ------------  ---------------      ----- ------------  ---------------
    30      0.433670  2 F  px                26      0.426686  2 F  px         
    22      0.306643  2 F  px                 3     -0.110233  1 Li px         
     6     -0.108020  1 Li s                 29      0.072999  2 F  s          
    10      0.071220  1 Li s                  1      0.069182  1 Li s          
     2      0.067883  1 Li s                 25      0.056687  2 F  s          

 Vector    5  Occ=2.000000D+00  E=-3.701986D-01
              MO Center=  3.3D-01,  1.4D-11, -1.6D-11, r^2= 6.5D-01
   Bfn.  Coefficient  Atom+Function         Bfn.  Coefficient  Atom+Function  
  ----- ------------  ---------------      ----- ------------  ---------------
    32     -0.304549  2 F  pz                28     -0.301874  2 F  pz         
    31      0.299530  2 F  py                27      0.296899  2 F  py         
    24     -0.216710  2 F  pz                23      0.213138  2 F  py         
     9     -0.080994  1 Li pz                 8      0.079659  1 Li py         
    16     -0.058924  1 Li dxz               15      0.057952  1 Li dxy        

 Vector    6  Occ=2.000000D+00  E=-3.701986D-01
              MO Center=  3.3D-01, -2.2D-12, -2.3D-12, r^2= 6.5D-01
   Bfn.  Coefficient  Atom+Function         Bfn.  Coefficient  Atom+Function  
  ----- ------------  ---------------      ----- ------------  ---------------
    31      0.304549  2 F  py                27      0.301874  2 F  py         
    32      0.299530  2 F  pz                28      0.296899  2 F  pz         
    23      0.216710  2 F  py                24      0.213138  2 F  pz         
     8      0.080994  1 Li py                 9      0.079659  1 Li pz         
    15      0.058924  1 Li dxy               16      0.057952  1 Li dxz        

 Vector    7  Occ=0.000000D+00  E=-4.769031D-03
              MO Center= -2.6D+00,  4.0D-10,  5.1D-10, r^2= 7.5D+00
   Bfn.  Coefficient  Atom+Function         Bfn.  Coefficient  Atom+Function  
  ----- ------------  ---------------      ----- ------------  ---------------
    10      0.964755  1 Li s                 11     -0.376274  1 Li px         
     6     -0.191349  1 Li s                  7     -0.127859  1 Li px         
     3     -0.072361  1 Li px                 1     -0.059583  1 Li s          
    14      0.051619  1 Li dxx                2     -0.047698  1 Li s          
    17      0.037117  1 Li dyy               19      0.037117  1 Li dzz        

 Vector    8  Occ=0.000000D+00  E= 4.887663D-02
              MO Center= -1.2D+00, -4.5D-10, -4.2D-10, r^2= 1.6D+01
   Bfn.  Coefficient  Atom+Function         Bfn.  Coefficient  Atom+Function  
  ----- ------------  ---------------      ----- ------------  ---------------
    12      0.841403  1 Li py                13      0.796669  1 Li pz         
     8     -0.178466  1 Li py                 9     -0.168978  1 Li pz         
     4      0.053679  1 Li py                31     -0.051866  2 F  py         
     5      0.050825  1 Li pz                32     -0.049109  2 F  pz         
    15     -0.045025  1 Li dxy               27     -0.043343  2 F  py         

 Vector    9  Occ=0.000000D+00  E= 4.887663D-02
              MO Center= -1.2D+00, -1.7D-12,  1.3D-11, r^2= 1.6D+01
   Bfn.  Coefficient  Atom+Function         Bfn.  Coefficient  Atom+Function  
  ----- ------------  ---------------      ----- ------------  ---------------
    13     -0.841403  1 Li pz                12      0.796669  1 Li py         
     9      0.178466  1 Li pz                 8     -0.168978  1 Li py         
     5     -0.053679  1 Li pz                32      0.051866  2 F  pz         
     4      0.050825  1 Li py                31     -0.049109  2 F  py         
    16      0.045025  1 Li dxz               28      0.043343  2 F  pz         

 Vector   10  Occ=0.000000D+00  E= 7.692756D-02
              MO Center= -8.8D-02, -1.4D-10, -2.0D-10, r^2= 1.6D+01
   Bfn.  Coefficient  Atom+Function         Bfn.  Coefficient  Atom+Function  
  ----- ------------  ---------------      ----- ------------  ---------------
    11      1.282995  1 Li px                 7     -0.607944  1 Li px         
    10      0.399384  1 Li s                 25     -0.076412  2 F  s          
    30     -0.076539  2 F  px                14     -0.066494  1 Li dxx        
     2     -0.047076  1 Li s                 17      0.042328  1 Li dyy        
    19      0.042328  1 Li dzz                1     -0.037438  1 Li s          

 Vector   11  Occ=0.000000D+00  E= 1.119365D-01
              MO Center= -1.9D+00,  7.7D-10,  7.0D-10, r^2= 1.1D+01
   Bfn.  Coefficient  Atom+Function         Bfn.  Coefficient  Atom+Function  
  ----- ------------  ---------------      ----- ------------  ---------------
     6      2.302268  1 Li s                 10     -1.751703  1 Li s          
     7     -0.595816  1 Li px                11      0.301932  1 Li px         
     2     -0.268795  1 Li s                 17     -0.207917  1 Li dyy        
    19     -0.207917  1 Li dzz               30      0.118954  2 F  px         
    14     -0.095482  1 Li dxx                1     -0.071562  1 Li s          

 Vector   12  Occ=0.000000D+00  E= 1.647028D-01
              MO Center= -1.3D+00, -4.4D-10, -4.3D-10, r^2= 8.5D+00
   Bfn.  Coefficient  Atom+Function         Bfn.  Coefficient  Atom+Function  
  ----- ------------  ---------------      ----- ------------  ---------------
     8      1.009754  1 Li py                 9      1.001721  1 Li pz         
    12     -0.705359  1 Li py                13     -0.699748  1 Li pz         
    31     -0.119748  2 F  py                32     -0.118795  2 F  pz         
    15     -0.105533  1 Li dxy               16     -0.104694  1 Li dxz        
     4      0.088364  1 Li py                 5      0.087661  1 Li pz         

 Vector   13  Occ=0.000000D+00  E= 1.647028D-01
              MO Center= -1.3D+00,  6.4D-11,  3.9D-12, r^2= 8.5D+00
   Bfn.  Coefficient  Atom+Function         Bfn.  Coefficient  Atom+Function  
  ----- ------------  ---------------      ----- ------------  ---------------
     9     -1.009754  1 Li pz                 8      1.001721  1 Li py         
    13      0.705359  1 Li pz                12     -0.699748  1 Li py         
    32      0.119748  2 F  pz                31     -0.118795  2 F  py         
    16      0.105533  1 Li dxz               15     -0.104694  1 Li dxy        
     5     -0.088364  1 Li pz                 4      0.087661  1 Li py         

 Vector   14  Occ=0.000000D+00  E= 2.538191D-01
              MO Center= -4.3D-01, -8.2D-11, -1.1D-11, r^2= 7.3D+00
   Bfn.  Coefficient  Atom+Function         Bfn.  Coefficient  Atom+Function  
  ----- ------------  ---------------      ----- ------------  ---------------
     7      1.508724  1 Li px                 6      1.454374  1 Li s          
    11     -0.822247  1 Li px                10     -0.689370  1 Li s          
    29     -0.565646  2 F  s                 14     -0.189247  1 Li dxx        
     2     -0.181773  1 Li s                 25     -0.127502  2 F  s          
    30      0.087893  2 F  px                26      0.070146  2 F  px         

 Vector   15  Occ=0.000000D+00  E= 5.300015D-01
              MO Center= -1.2D+00, -7.8D-11,  3.4D-11, r^2= 3.9D+00
   Bfn.  Coefficient  Atom+Function         Bfn.  Coefficient  Atom+Function  
  ----- ------------  ---------------      ----- ------------  ---------------
     8     -0.932526  1 Li py                 4      0.896712  1 Li py         
     9      0.889520  1 Li pz                 5     -0.855358  1 Li pz         
    12      0.435244  1 Li py                13     -0.415171  1 Li pz         
    15     -0.255067  1 Li dxy               16      0.243304  1 Li dxz        
    31      0.043981  2 F  py                32     -0.041953  2 F  pz         

 Vector   16  Occ=0.000000D+00  E= 5.300015D-01
              MO Center= -1.2D+00, -1.6D-10, -1.7D-10, r^2= 3.9D+00
   Bfn.  Coefficient  Atom+Function         Bfn.  Coefficient  Atom+Function  
  ----- ------------  ---------------      ----- ------------  ---------------
     9     -0.932526  1 Li pz                 5      0.896712  1 Li pz         
     8     -0.889520  1 Li py                 4      0.855358  1 Li py         
    13      0.435244  1 Li pz                12      0.415171  1 Li py         
    16     -0.255067  1 Li dxz               15     -0.243304  1 Li dxy        
    32      0.043981  2 F  pz                31      0.041953  2 F  py         

 Vector   17  Occ=0.000000D+00  E= 5.484510D-01
              MO Center= -1.7D+00, -3.2D-10, -3.5D-10, r^2= 4.0D+00
   Bfn.  Coefficient  Atom+Function         Bfn.  Coefficient  Atom+Function  
  ----- ------------  ---------------      ----- ------------  ---------------
     6      1.319768  1 Li s                 14     -1.307211  1 Li dxx        
     7     -1.274260  1 Li px                 3      0.841481  1 Li px         
    29      0.671493  2 F  s                 11      0.527203  1 Li px         
    10     -0.500367  1 Li s                  2     -0.256152  1 Li s          
    26      0.116144  2 F  px                17     -0.099867  1 Li dyy        

 Vector   18  Occ=0.000000D+00  E= 5.642592D-01
              MO Center= -1.2D+00, -7.1D-11, -7.2D-11, r^2= 2.5D+00
   Bfn.  Coefficient  Atom+Function         Bfn.  Coefficient  Atom+Function  
  ----- ------------  ---------------      ----- ------------  ---------------
    17      0.865691  1 Li dyy               19     -0.865691  1 Li dzz        

 Vector   19  Occ=0.000000D+00  E= 5.642630D-01
              MO Center= -1.2D+00, -1.7D-10, -1.7D-10, r^2= 2.5D+00
   Bfn.  Coefficient  Atom+Function         Bfn.  Coefficient  Atom+Function  
  ----- ------------  ---------------      ----- ------------  ---------------
    18      1.731382  1 Li dyz        

 Vector   20  Occ=0.000000D+00  E= 6.323396D-01
              MO Center= -1.1D+00,  4.5D-11,  6.1D-11, r^2= 2.4D+00
   Bfn.  Coefficient  Atom+Function         Bfn.  Coefficient  Atom+Function  
  ----- ------------  ---------------      ----- ------------  ---------------
    15      1.349949  1 Li dxy               16     -1.337449  1 Li dxz        
    31     -0.246985  2 F  py                32      0.244698  2 F  pz         
     4      0.193465  1 Li py                 5     -0.191673  1 Li pz         
    27     -0.109873  2 F  py                28      0.108855  2 F  pz         
    23     -0.080038  2 F  py                24      0.079297  2 F  pz         

 Vector   21  Occ=0.000000D+00  E= 6.323396D-01
              MO Center= -1.1D+00,  2.9D-10,  3.0D-10, r^2= 2.4D+00
   Bfn.  Coefficient  Atom+Function         Bfn.  Coefficient  Atom+Function  
  ----- ------------  ---------------      ----- ------------  ---------------
    16      1.349949  1 Li dxz               15      1.337449  1 Li dxy        
    32     -0.246985  2 F  pz                31     -0.244698  2 F  py         
     5      0.193465  1 Li pz                 4      0.191673  1 Li py         
    28     -0.109873  2 F  pz                27     -0.108855  2 F  py         
    24     -0.080038  2 F  pz                23     -0.079297  2 F  py         

 Vector   22  Occ=0.000000D+00  E= 6.531619D-01
              MO Center= -9.6D-01,  3.1D-10,  2.4D-10, r^2= 7.2D+00
   Bfn.  Coefficient  Atom+Function         Bfn.  Coefficient  Atom+Function  
  ----- ------------  ---------------      ----- ------------  ---------------
     6      4.427918  1 Li s                 17     -1.639728  1 Li dyy        
    19     -1.639728  1 Li dzz               10     -1.469546  1 Li s          
    29     -0.944176  2 F  s                  3      0.758198  1 Li px         
     2     -0.653740  1 Li s                 30      0.585187  2 F  px         
    14     -0.282854  1 Li dxx                1      0.165410  1 Li s          

 Vector   23  Occ=0.000000D+00  E= 9.026191D-01
              MO Center= -1.1D+00,  6.1D-12, -5.1D-12, r^2= 4.0D+00
   Bfn.  Coefficient  Atom+Function         Bfn.  Coefficient  Atom+Function  
  ----- ------------  ---------------      ----- ------------  ---------------
     6      3.444402  1 Li s                 14     -2.402701  1 Li dxx        
     3     -1.201175  1 Li px                17     -0.997290  1 Li dyy        
    19     -0.997290  1 Li dzz               10     -0.978641  1 Li s          
    29      0.978734  2 F  s                  2     -0.694521  1 Li s          
    30     -0.575614  2 F  px                25      0.282893  2 F  s          

 Vector   24  Occ=0.000000D+00  E= 1.328218D+00
              MO Center=  4.0D-01,  7.4D-12, -5.9D-12, r^2= 1.5D+00
   Bfn.  Coefficient  Atom+Function         Bfn.  Coefficient  Atom+Function  
  ----- ------------  ---------------      ----- ------------  ---------------
    31      1.027457  2 F  py                32     -1.004707  2 F  pz         
    15     -0.585969  1 Li dxy               16      0.572995  1 Li dxz        
    27     -0.566092  2 F  py                28      0.553558  2 F  pz         
     8     -0.214457  1 Li py                 9      0.209708  1 Li pz         
    23     -0.184969  2 F  py                24      0.180874  2 F  pz         

 Vector   25  Occ=0.000000D+00  E= 1.328218D+00
              MO Center=  4.0D-01,  1.5D-10,  1.6D-10, r^2= 1.5D+00
   Bfn.  Coefficient  Atom+Function         Bfn.  Coefficient  Atom+Function  
  ----- ------------  ---------------      ----- ------------  ---------------
    32      1.027457  2 F  pz                31      1.004707  2 F  py         
    16     -0.585969  1 Li dxz               15     -0.572995  1 Li dxy        
    28     -0.566092  2 F  pz                27     -0.553558  2 F  py         
     9     -0.214457  1 Li pz                 8     -0.209708  1 Li py         
    24     -0.184969  2 F  pz                23     -0.180874  2 F  py         

 Vector   26  Occ=0.000000D+00  E= 1.344308D+00
              MO Center=  5.5D-01, -1.6D-10, -1.6D-10, r^2= 1.8D+00
   Bfn.  Coefficient  Atom+Function         Bfn.  Coefficient  Atom+Function  
  ----- ------------  ---------------      ----- ------------  ---------------
     6      1.565832  1 Li s                 30     -1.253272  2 F  px         
    26      0.726097  2 F  px                17     -0.715955  1 Li dyy        
    19     -0.715955  1 Li dzz               29     -0.604285  2 F  s          
    25      0.436533  2 F  s                  7      0.376563  1 Li px         
    14     -0.362849  1 Li dxx                2     -0.352951  1 Li s          

 Vector   27  Occ=0.000000D+00  E= 1.813890D+00
              MO Center= -3.1D-01,  6.0D-12,  6.5D-12, r^2= 2.1D+00
   Bfn.  Coefficient  Atom+Function         Bfn.  Coefficient  Atom+Function  
  ----- ------------  ---------------      ----- ------------  ---------------
    29      3.311114  2 F  s                 14     -1.460368  1 Li dxx        
    25     -1.397352  2 F  s                 30     -1.222570  2 F  px         
     3     -1.159426  1 Li px                 7     -0.642835  1 Li px         
    17     -0.284653  1 Li dyy               19     -0.284653  1 Li dzz        
    26      0.272792  2 F  px                 6      0.266906  1 Li s          

 Vector   28  Occ=0.000000D+00  E= 3.755311D+00
              MO Center= -4.3D-01, -1.0D-11,  9.8D-12, r^2= 1.5D+00
   Bfn.  Coefficient  Atom+Function         Bfn.  Coefficient  Atom+Function  
  ----- ------------  ---------------      ----- ------------  ---------------
     2      1.630297  1 Li s                  1     -1.285408  1 Li s          
     6     -1.287847  1 Li s                 33      0.650221  2 F  dxx        
    14      0.629457  1 Li dxx               29     -0.600369  2 F  s          
    10      0.462811  1 Li s                 30      0.444905  2 F  px         
    17      0.344575  1 Li dyy               19      0.344575  1 Li dzz        

 Vector   29  Occ=0.000000D+00  E= 4.025000D+00
              MO Center=  3.9D-01, -6.6D-13,  5.2D-13, r^2= 2.9D-01
   Bfn.  Coefficient  Atom+Function         Bfn.  Coefficient  Atom+Function  
  ----- ------------  ---------------      ----- ------------  ---------------
    37      1.733133  2 F  dyz               18     -0.079561  1 Li dyz        

 Vector   30  Occ=0.000000D+00  E= 4.025000D+00
              MO Center=  3.9D-01, -1.2D-13,  1.1D-13, r^2= 2.9D-01
   Bfn.  Coefficient  Atom+Function         Bfn.  Coefficient  Atom+Function  
  ----- ------------  ---------------      ----- ------------  ---------------
    36      0.866567  2 F  dyy               38     -0.866567  2 F  dzz        
    17     -0.039780  1 Li dyy               19      0.039780  1 Li dzz        

 Vector   31  Occ=0.000000D+00  E= 4.069971D+00
              MO Center=  3.6D-01,  6.5D-13, -4.9D-13, r^2= 3.4D-01
   Bfn.  Coefficient  Atom+Function         Bfn.  Coefficient  Atom+Function  
  ----- ------------  ---------------      ----- ------------  ---------------
    35     -1.268220  2 F  dxz               34      1.193365  2 F  dxy        
    16     -0.185747  1 Li dxz               15      0.174783  1 Li dxy        
    32      0.087675  2 F  pz                31     -0.082500  2 F  py         
     5     -0.067874  1 Li pz                 4      0.063868  1 Li py         
    24     -0.033241  2 F  pz                23      0.031279  2 F  py         

 Vector   32  Occ=0.000000D+00  E= 4.069971D+00
              MO Center=  3.6D-01,  1.3D-12, -1.7D-13, r^2= 3.4D-01
   Bfn.  Coefficient  Atom+Function         Bfn.  Coefficient  Atom+Function  
  ----- ------------  ---------------      ----- ------------  ---------------
    34      1.268220  2 F  dxy               35      1.193365  2 F  dxz        
    15      0.185747  1 Li dxy               16      0.174783  1 Li dxz        
    31     -0.087675  2 F  py                32     -0.082500  2 F  pz         
     4      0.067874  1 Li py                 5      0.063868  1 Li pz         
    23      0.033241  2 F  py                24      0.031279  2 F  pz         

 Vector   33  Occ=0.000000D+00  E= 4.321639D+00
              MO Center= -2.4D-01,  9.2D-12, -1.1D-11, r^2= 1.0D+00
   Bfn.  Coefficient  Atom+Function         Bfn.  Coefficient  Atom+Function  
  ----- ------------  ---------------      ----- ------------  ---------------
     2      1.454404  1 Li s                  1     -1.112944  1 Li s          
    29     -0.928522  2 F  s                  6     -0.832815  1 Li s          
    33     -0.791432  2 F  dxx               14      0.708648  1 Li dxx        
     3      0.621550  1 Li px                30      0.620574  2 F  px         
    25      0.423780  2 F  s                 36      0.366674  2 F  dyy        

 Vector   34  Occ=0.000000D+00  E= 6.312668D+00
              MO Center=  4.1D-01,  1.3D-12,  1.0D-12, r^2= 3.7D-01
   Bfn.  Coefficient  Atom+Function         Bfn.  Coefficient  Atom+Function  
  ----- ------------  ---------------      ----- ------------  ---------------
    27      1.051330  2 F  py                28      0.963836  2 F  pz         
    23     -0.923077  2 F  py                24     -0.846256  2 F  pz         
    31     -0.497573  2 F  py                32     -0.456164  2 F  pz         
    15      0.161945  1 Li dxy               16      0.148468  1 Li dxz        
     8      0.087236  1 Li py                 9      0.079976  1 Li pz         

 Vector   35  Occ=0.000000D+00  E= 6.312668D+00
              MO Center=  4.1D-01,  1.4D-12, -1.6D-12, r^2= 3.7D-01
   Bfn.  Coefficient  Atom+Function         Bfn.  Coefficient  Atom+Function  
  ----- ------------  ---------------      ----- ------------  ---------------
    28     -1.051330  2 F  pz                27      0.963836  2 F  py         
    24      0.923077  2 F  pz                23     -0.846256  2 F  py         
    32      0.497573  2 F  pz                31     -0.456164  2 F  py         
    16     -0.161945  1 Li dxz               15      0.148468  1 Li dxy        
     9     -0.087236  1 Li pz                 8      0.079976  1 Li py         

 Vector   36  Occ=0.000000D+00  E= 6.394911D+00
              MO Center=  4.5D-01, -1.6D-12, -1.5D-12, r^2= 4.3D-01
   Bfn.  Coefficient  Atom+Function         Bfn.  Coefficient  Atom+Function  
  ----- ------------  ---------------      ----- ------------  ---------------
    26      1.470479  2 F  px                22     -1.248527  2 F  px         
    30     -0.836162  2 F  px                 6      0.464758  1 Li s          
     2     -0.439840  1 Li s                 29      0.297294  2 F  s          
    25     -0.281520  2 F  s                 14     -0.276168  1 Li dxx        
     3     -0.242448  1 Li px                17     -0.228565  1 Li dyy        

 Vector   37  Occ=0.000000D+00  E= 8.505562D+00
              MO Center=  3.2D-01, -1.7D-12,  1.8D-12, r^2= 4.6D-01
   Bfn.  Coefficient  Atom+Function         Bfn.  Coefficient  Atom+Function  
  ----- ------------  ---------------      ----- ------------  ---------------
    25      2.804290  2 F  s                 36     -1.604814  2 F  dyy        
    38     -1.604814  2 F  dzz               33     -1.540663  2 F  dxx        
    29      1.497764  2 F  s                 21     -0.721831  2 F  s          
    14     -0.469363  1 Li dxx               30     -0.430574  2 F  px         
     3     -0.370867  1 Li px                 2     -0.321626  1 Li s          

 Vector   38  Occ=0.000000D+00  E= 7.374009D+01
              MO Center=  3.9D-01, -4.7D-16, -9.1D-16, r^2= 5.2D-02
   Bfn.  Coefficient  Atom+Function         Bfn.  Coefficient  Atom+Function  
  ----- ------------  ---------------      ----- ------------  ---------------
    21      2.783627  2 F  s                 20     -2.399903  2 F  s          
    25     -1.150431  2 F  s                 36      0.560994  2 F  dyy        
    38      0.560994  2 F  dzz               33      0.553232  2 F  dxx        
    29     -0.369438  2 F  s                 14      0.110234  1 Li dxx        
    30      0.092232  2 F  px                 3      0.086991  1 Li px         


 center of mass
 --------------
 x =  -0.05807435 y =   0.00000000 z =   0.00000000

 moments of inertia (a.u.)
 ------------------
           0.000000000000           0.000000000000           0.000000000000
           0.000000000000          44.542121501615           0.000000000000
           0.000000000000           0.000000000000          44.542121501615

     Multipole analysis of the density
     ---------------------------------

     L   x y z        total         alpha         beta         nuclear
     -   - - -        -----         -----         ----         -------
     0   0 0 0     -0.000000     -6.000000     -6.000000     12.000000

     1   1 0 0     -2.280734     -1.140367     -1.140367     -0.000000
     1   0 1 0     -0.000000     -0.000000     -0.000000      0.000000
     1   0 0 1      0.000000      0.000000      0.000000      0.000000

     2   2 0 0     -0.812808    -10.186219    -10.186219     19.559629
     2   1 1 0      0.000000      0.000000      0.000000      0.000000
     2   1 0 1     -0.000000     -0.000000     -0.000000      0.000000
     2   0 2 0     -5.485170     -2.742585     -2.742585      0.000000
     2   0 1 1     -0.000000     -0.000000     -0.000000      0.000000
     2   0 0 2     -5.485170     -2.742585     -2.742585      0.000000

  int_init: cando_txs set to always be  F
                                NWChem TDDFT Module
                                -------------------


        LiF LR-TDDFT, LC-wPBE mu=0.34272, 6-311G* Cartesian, PBE0 geometry


            General Information
            -------------------
           No. of orbitals :      76
            Alpha orbitals :      38
             Beta orbitals :      38
        Alpha frozen cores :       0
         Beta frozen cores :       0
     Alpha frozen virtuals :       0
      Beta frozen virtuals :       0
         Spin multiplicity :       1
    Number of AO functions :      38
        Use of symmetry is : off
      Symmetry adaption is : off
         Schwarz screening :  0.10D-07

              XC Information
              --------------
              Hartree-Fock (Exact) Exchange   1.00          
              LC-wPBE(h)Exchange Functional   1.00          
     Perdew 1991 LDA Correlation Functional   1.00 local    
    PerdewBurkeErnz. Correlation Functional   1.00 non-local
           Alpha           :  0.00
           Beta            :  1.00
           Gamma           :  0.34

             TDDFT Information
             -----------------
          Calculation type : TDDFT             
         Wavefunction type : Restricted singlets
          No. of electrons :      12
           Alpha electrons :       6
            Beta electrons :       6
              No. of roots :      12
          Max subspacesize :    6400
            Max iterations :     100
               Target root :       1
           Target symmetry : none
      Symmetry restriction : off
                 Algorithm : Optimal
        Davidson threshold :  0.10D-03

            Memory Information
            ------------------
          Available GA space size is         163838556 doubles
          Available MA space size is         163839332 doubles
          Length of a trial vector is          192
          Algorithm : Incore multiple tensor contraction
          Estimated peak GA usage is           5064208 doubles
          Estimated peak MA usage is            102000 doubles

   12 smallest eigenvalue differences (eV) 
--------------------------------------------------------
  No. Spin  Occ  Vir  Irrep   E(Occ)    E(Vir)   E(Diff)
--------------------------------------------------------
    1    1    6    7 a        -0.370    -0.005     9.944
    2    1    5    7 a        -0.370    -0.005     9.944
    3    1    4    7 a        -0.384    -0.005    10.308
    4    1    6    8 a        -0.370     0.049    11.404
    5    1    5    8 a        -0.370     0.049    11.404
    6    1    6    9 a        -0.370     0.049    11.404
    7    1    5    9 a        -0.370     0.049    11.404
    8    1    4    8 a        -0.384     0.049    11.768
    9    1    4    9 a        -0.384     0.049    11.768
   10    1    6   10 a        -0.370     0.077    12.167
   11    1    5   10 a        -0.370     0.077    12.167
   12    1    4   10 a        -0.384     0.077    12.531
--------------------------------------------------------

  Entering Davidson iterations
  Restricted singlet excited states

  Iter   NTrls   NConv    DeltaV     DeltaE      Time   
  ----  ------  ------  ---------  ---------  --------- 
    1     12       0     0.22E+00   0.10+100        1.0
    2     36       0     0.41E-01   0.17E-01        1.6
    3     60       0     0.66E-02   0.85E-03        1.6
    4     84       4     0.11E-02   0.15E-04        1.6
    5    100      11     0.11E-03   0.12E-06        1.2
    6    101      12     0.55E-04   0.61E-09        0.3
  ----  ------  ------  ---------  ---------  --------- 
  Convergence criterion met

  Ground state a        -107.360662771235 a.u.

  ----------------------------------------------------------------------------
  Root   1 singlet a              0.201930345 a.u.                5.4948 eV 
  ----------------------------------------------------------------------------
     Transition Moments    X -0.00000   Y  0.35928   Z  0.35877
     Transition Moments   XX  0.00000  XY -0.67722  XZ -0.67624
     Transition Moments   YY  0.00000  YZ  0.00000  ZZ  0.00000
     Dipole Oscillator Strength                    0.0347048471
     Electric Quadrupole                           0.0000000402
     Magnetic Dipole                               0.0000000355
     Total Oscillator Strength                     0.0347049228

     Occ.    6  a   ---  Virt.    7  a   -0.93089 X
     Occ.    6  a   ---  Virt.   10  a   -0.26474 X
     Occ.    6  a   ---  Virt.   11  a   -0.21800 X
     Occ.    6  a   ---  Virt.   14  a   -0.12398 X
  ----------------------------------------------------------------------------
  Root   2 singlet a              0.201930345 a.u.                5.4948 eV 
  ----------------------------------------------------------------------------
     Transition Moments    X -0.00000   Y  0.35877   Z -0.35928
     Transition Moments   XX  0.00000  XY -0.67624  XZ  0.67722
     Transition Moments   YY  0.00000  YZ  0.00000  ZZ -0.00000
     Dipole Oscillator Strength                    0.0347048471
     Electric Quadrupole                           0.0000000402
     Magnetic Dipole                               0.0000000355
     Total Oscillator Strength                     0.0347049227

     Occ.    5  a   ---  Virt.    7  a   -0.93089 X
     Occ.    5  a   ---  Virt.   10  a   -0.26474 X
     Occ.    5  a   ---  Virt.   11  a   -0.21800 X
     Occ.    5  a   ---  Virt.   14  a   -0.12398 X
  ----------------------------------------------------------------------------
  Root   3 singlet a              0.214409683 a.u.                5.8344 eV 
  ----------------------------------------------------------------------------
     Transition Moments    X -0.20137   Y -0.00000   Z -0.00000
     Transition Moments   XX  0.18698  XY  0.00000  XZ  0.00000
     Transition Moments   YY -0.07798  YZ  0.00000  ZZ -0.07798
     Dipole Oscillator Strength                    0.0057961193
     Electric Quadrupole                           0.0000000012
     Magnetic Dipole                               0.0000000000
     Total Oscillator Strength                     0.0057961205

     Occ.    4  a   ---  Virt.    7  a    0.92610 X
     Occ.    4  a   ---  Virt.   10  a    0.27882 X
     Occ.    4  a   ---  Virt.   11  a    0.21563 X
     Occ.    4  a   ---  Virt.   14  a    0.12436 X
  ----------------------------------------------------------------------------
  Root   4 singlet a              0.264030433 a.u.                7.1846 eV 
  ----------------------------------------------------------------------------
     Transition Moments    X -0.00000   Y  0.00000   Z -0.00000
     Transition Moments   XX  0.00000  XY -0.00000  XZ  0.00000
     Transition Moments   YY -0.00000  YZ  0.00000  ZZ  0.00000
     Dipole Oscillator Strength                    0.0000000000
     Electric Quadrupole                           0.0000000000
     Magnetic Dipole                               0.0000000000
     Total Oscillator Strength                     0.0000000000

     Occ.    5  a   ---  Virt.    8  a    0.64250 X
     Occ.    5  a   ---  Virt.   12  a    0.29293 X
     Occ.    6  a   ---  Virt.    9  a   -0.64250 X
     Occ.    6  a   ---  Virt.   13  a   -0.29293 X
  ----------------------------------------------------------------------------
  Root   5 singlet a              0.265228641 a.u.                7.2172 eV 
  ----------------------------------------------------------------------------
     Transition Moments    X -0.00000   Y -0.00000   Z -0.00000
     Transition Moments   XX  0.00000  XY  0.00000  XZ -0.00000
     Transition Moments   YY -0.00000  YZ  1.11357  ZZ  0.00000
     Dipole Oscillator Strength                    0.0000000000
     Electric Quadrupole                           0.0000001232
     Magnetic Dipole                               0.0000000000
     Total Oscillator Strength                     0.0000001232

     Occ.    5  a   ---  Virt.    9  a    0.64659 X
     Occ.    5  a   ---  Virt.   13  a    0.28351 X
     Occ.    6  a   ---  Virt.    8  a   -0.64659 X
     Occ.    6  a   ---  Virt.   12  a   -0.28351 X
  ----------------------------------------------------------------------------
  Root   6 singlet a              0.265229024 a.u.                7.2173 eV 
  ----------------------------------------------------------------------------
     Transition Moments    X  0.00000   Y  0.00000   Z -0.00000
     Transition Moments   XX -0.00000  XY  0.00000  XZ  0.00000
     Transition Moments   YY -1.11357  YZ -0.00000  ZZ  1.11357
     Dipole Oscillator Strength                    0.0000000000
     Electric Quadrupole                           0.0000001232
     Magnetic Dipole                               0.0000000000
     Total Oscillator Strength                     0.0000001232

     Occ.    5  a   ---  Virt.    8  a    0.64660 X
     Occ.    5  a   ---  Virt.   12  a    0.28350 X
     Occ.    6  a   ---  Virt.    9  a    0.64660 X
     Occ.    6  a   ---  Virt.   13  a    0.28350 X
  ----------------------------------------------------------------------------
  Root   7 singlet a              0.278184838 a.u.                7.5698 eV 
  ----------------------------------------------------------------------------
     Transition Moments    X -0.00000   Y  0.04225   Z  0.04175
     Transition Moments   XX  0.00000  XY -0.28516  XZ -0.28179
     Transition Moments   YY  0.00000  YZ -0.00000  ZZ  0.00000
     Dipole Oscillator Strength                    0.0006542358
     Electric Quadrupole                           0.0000000184
     Magnetic Dipole                               0.0000001775
     Total Oscillator Strength                     0.0006544318

     Occ.    4  a   ---  Virt.    8  a    0.91182 X
     Occ.    4  a   ---  Virt.   12  a    0.40706 X
  ----------------------------------------------------------------------------
  Root   8 singlet a              0.278184838 a.u.                7.5698 eV 
  ----------------------------------------------------------------------------
     Transition Moments    X -0.00000   Y  0.04175   Z -0.04225
     Transition Moments   XX  0.00000  XY -0.28179  XZ  0.28516
     Transition Moments   YY -0.00000  YZ -0.00000  ZZ  0.00000
     Dipole Oscillator Strength                    0.0006542358
     Electric Quadrupole                           0.0000000184
     Magnetic Dipole                               0.0000001775
     Total Oscillator Strength                     0.0006544318

     Occ.    4  a   ---  Virt.    9  a    0.91182 X
     Occ.    4  a   ---  Virt.   13  a    0.40706 X
  ----------------------------------------------------------------------------
  Root   9 singlet a              0.283547894 a.u.                7.7157 eV 
  ----------------------------------------------------------------------------
     Transition Moments    X -0.00000   Y -0.24042   Z -0.24311
     Transition Moments   XX  0.00000  XY -0.32055  XZ -0.32415
     Transition Moments   YY -0.00000  YZ -0.00000  ZZ  0.00000
     Dipole Oscillator Strength                    0.0220987137
     Electric Quadrupole                           0.0000000252
     Magnetic Dipole                               0.0000000002
     Total Oscillator Strength                     0.0220987392

     Occ.    6  a   ---  Virt.    7  a   -0.17630 X
     Occ.    6  a   ---  Virt.   10  a    0.87678 X
     Occ.    6  a   ---  Virt.   11  a   -0.40901 X
     Occ.    6  a   ---  Virt.   14  a    0.17502 X
  ----------------------------------------------------------------------------
  Root  10 singlet a              0.283547894 a.u.                7.7157 eV 
  ----------------------------------------------------------------------------
     Transition Moments    X -0.00000   Y -0.24311   Z  0.24042
     Transition Moments   XX  0.00000  XY -0.32415  XZ  0.32055
     Transition Moments   YY  0.00000  YZ  0.00000  ZZ  0.00000
     Dipole Oscillator Strength                    0.0220987137
     Electric Quadrupole                           0.0000000252
     Magnetic Dipole                               0.0000000002
     Total Oscillator Strength                     0.0220987392

     Occ.    5  a   ---  Virt.    7  a   -0.17630 X
     Occ.    5  a   ---  Virt.   10  a    0.87678 X
     Occ.    5  a   ---  Virt.   11  a   -0.40901 X
     Occ.    5  a   ---  Virt.   14  a    0.17502 X
  ----------------------------------------------------------------------------
  Root  11 singlet a              0.288848869 a.u.                7.8600 eV 
  ----------------------------------------------------------------------------
     Transition Moments    X  0.55655   Y -0.00000   Z  0.00000
     Transition Moments   XX -0.72696  XY -0.00000  XZ -0.00000
     Transition Moments   YY -1.24415  YZ  0.00000  ZZ -1.24415
     Dipole Oscillator Strength                    0.0596465565
     Electric Quadrupole                           0.0000000114
     Magnetic Dipole                               0.0000000000
     Total Oscillator Strength                     0.0596465680

     Occ.    4  a   ---  Virt.   10  a   -0.40560 X
     Occ.    4  a   ---  Virt.   11  a    0.22048 X
     Occ.    5  a   ---  Virt.    9  a    0.61827 X
     Occ.    5  a   ---  Virt.   13  a    0.09838 X
     Occ.    6  a   ---  Virt.    8  a    0.61827 X
     Occ.    6  a   ---  Virt.   12  a    0.09838 X
  ----------------------------------------------------------------------------
  Root  12 singlet a              0.298975296 a.u.                8.1355 eV 
  ----------------------------------------------------------------------------
     Transition Moments    X -0.04783   Y  0.00000   Z -0.00000
     Transition Moments   XX -1.78625  XY  0.00000  XZ -0.00000
     Transition Moments   YY -1.33385  YZ  0.00000  ZZ -1.33385
     Dipole Oscillator Strength                    0.0004559701
     Electric Quadrupole                           0.0000000097
     Magnetic Dipole                               0.0000000000
     Total Oscillator Strength                     0.0004559798

     Occ.    4  a   ---  Virt.    7  a   -0.20062 X
     Occ.    4  a   ---  Virt.   10  a    0.77347 X
     Occ.    4  a   ---  Virt.   11  a   -0.33182 X
     Occ.    4  a   ---  Virt.   14  a    0.20757 X
     Occ.    5  a   ---  Virt.    9  a    0.32201 X
     Occ.    6  a   ---  Virt.    8  a    0.32201 X

              Target root =      1
          Target symmetry = none
      Ground state energy =   -107.360662771235
        Excitation energy =      0.201930344670
     Excited state energy =   -107.158732426565

  stored tddft:energy   -107.15873242656542     

 Task  times  cpu:        8.2s     wall:        8.2s
 Summary of allocated global arrays
-----------------------------------
  No active global arrays


MA_summarize_allocated_blocks: starting scan ...
MA_summarize_allocated_blocks: scan completed: 0 heap blocks, 0 stack blocks
MA usage statistics:

	allocation statistics:
					      heap	     stack
					      ----	     -----
	current number of blocks	         0	         0
	maximum number of blocks	        17	        60
	current total bytes		         0	         0
	maximum total bytes		   3052448	  22511272
	maximum total K-bytes		      3053	     22512
	maximum total M-bytes		         4	        23


                                NWChem Input Module
                                -------------------




                                     CITATION
                                     --------
                Please cite the following reference when publishing
                           results obtained with NWChem:

          E. Apra, E. J. Bylaska, W. A. de Jong, N. Govind, K. Kowalski,
       T. P. Straatsma, M. Valiev, H. J. J. van Dam, Y. Alexeev, J. Anchell,
       V. Anisimov, F. W. Aquino, R. Atta-Fynn, J. Autschbach, N. P. Bauman,
     J. C. Becca, D. E. Bernholdt, K. Bhaskaran-Nair, S. Bogatko, P. Borowski,
         J. Boschen, J. Brabec, A. Bruner, E. Cauet, Y. Chen, G. N. Chuev,
      C. J. Cramer, J. Daily, M. J. O. Deegan, T. H. Dunning Jr., M. Dupuis,
   K. G. Dyall, G. I. Fann, S. A. Fischer, A. Fonari, H. Fruchtl, L. Gagliardi,
      J. Garza, N. Gawande, S. Ghosh, K. Glaesemann, A. W. Gotz, J. Hammond,
       V. Helms, E. D. Hermes, K. Hirao, S. Hirata, M. Jacquelin, L. Jensen,
   B. G. Johnson, H. Jonsson, R. A. Kendall, M. Klemm, R. Kobayashi, V. Konkov,
      S. Krishnamoorthy, M. Krishnan, Z. Lin, R. D. Lins, R. J. Littlefield,
      A. J. Logsdail, K. Lopata, W. Ma, A. V. Marenich, J. Martin del Campo,
   D. Mejia-Rodriguez, J. E. Moore, J. M. Mullin, T. Nakajima, D. R. Nascimento,
    J. A. Nichols, P. J. Nichols, J. Nieplocha, A. Otero-de-la-Roza, B. Palmer,
    A. Panyala, T. Pirojsirikul, B. Peng, R. Peverati, J. Pittner, L. Pollack,
   R. M. Richard, P. Sadayappan, G. C. Schatz, W. A. Shelton, D. W. Silverstein,
   D. M. A. Smith, T. A. Soares, D. Song, M. Swart, H. L. Taylor, G. S. Thomas,
            V. Tipparaju, D. G. Truhlar, K. Tsemekhman, T. Van Voorhis,
      A. Vazquez-Mayagoitia, P. Verma, O. Villa, A. Vishnu, K. D. Vogiatzis,
        D. Wang, J. H. Weare, M. J. Williamson, T. L. Windus, K. Wolinski,
        A. T. Wong, Q. Wu, C. Yang, Q. Yu, M. Zacharias, Z. Zhang, Y. Zhao,
                                and R. J. Harrison
                        "NWChem: Past, present, and future
                         J. Chem. Phys. 152, 184102 (2020)
                               doi:10.1063/5.0004997

                                      AUTHORS
                                      -------
  E. Apra, E. J. Bylaska, N. Govind, K. Kowalski, M. Valiev, D. Mejia-Rodriguez,
       A. Kunitsa, N. P. Bauman, A. Panyala, W. A. de Jong, T. P. Straatsma,
   H. J. J. van Dam, D. Wang, T. L. Windus, J. Hammond, J. Autschbach, A. Woods,
    K. Bhaskaran-Nair, J. Brabec, K. Lopata, S. A. Fischer, S. Krishnamoorthy,
     M. Jacquelin, W. Ma, M. Klemm, O. Villa, Y. Chen, V. Anisimov, F. Aquino,
     S. Hirata, M. T. Hackler, E. Hermes, L. Jensen, J. E. Moore, J. C. Becca,
      V. Konjkov, T. Risthaus, M. Malagoli, A. Marenich, A. Otero-de-la-Roza,
        J. Mullin, P. Nichols, R. Peverati, J. Pittner, Y. Zhao, P.-D. Fan,
        A. Fonari, M. J. Williamson, R. J. Harrison, J. R. Rehr, M. Dupuis,
     D. Silverstein, D. M. A. Smith, J. Nieplocha, V. Tipparaju, M. Krishnan,
     B. E. Van Kuiken, A. Vazquez-Mayagoitia, M. Swart, Q. Wu, T. Van Voorhis,
     A. A. Auer, M. Nooijen, L. D. Crosby, E. Brown, G. Cisneros, G. I. Fann,
   H. Fruchtl, J. Garza, K. Hirao, R. A. Kendall, J. A. Nichols, K. Tsemekhman,
    K. Wolinski, J. Anchell, D. E. Bernholdt, P. Borowski, T. Clark, D. Clerc,
   H. Dachsel, M. J. O. Deegan, K. Dyall, D. Elwood, E. Glendening, M. Gutowski,
   A. C. Hess, J. Jaffe, B. G. Johnson, J. Ju, R. Kobayashi, R. Kutteh, Z. Lin,
   R. Littlefield, X. Long, B. Meng, T. Nakajima, S. Niu, L. Pollack, M. Rosing,
   K. Glaesemann, G. Sandrone, M. Stave, H. Taylor, G. Thomas, J. H. van Lenthe,
                               A. T. Wong, Z. Zhang.

 Total times  cpu:        8.2s     wall:        8.2s
