 argument  1 = tddft.nw



============================== echo of input deck ==============================
echo
start lif_td
title "LiF LR-TDDFT, LC-wPBE mu=0.557662, 6-311G* Cartesian, PBE0 geometry"
scratch_dir /Users/bldrdge1/Downloads/repos/PlasMol/jobs/final/Step_1/lif
permanent_dir /Users/bldrdge1/Downloads/repos/PlasMol/jobs/final/Step_1/lif
memory total 2500 mb
charge 0

geometry units angstroms noautosym noautoz
  Li    -1.17511786     0.00000000     0.00000000
  F      0.38511786    -0.00000000    -0.00000000
end

basis cartesian
  * library 6-311G*
end

dft
  xc xwpbe 1.00 cpbe96 1.0 hfexch 1.00
  cam 0.557662 cam_alpha 0.00 cam_beta 1.00
  mult 1
  grid fine
  iterations 100
  convergence energy 1.0e-7
end

tddft
  nroots 24
  notriplet
end

task tddft energy
================================================================================


                                         
                                         


             Northwest Computational Chemistry Package (NWChem) 7.2.3
             --------------------------------------------------------


                    Environmental Molecular Sciences Laboratory
                       Pacific Northwest National Laboratory
                                Richland, WA 99352

                              Copyright (c) 1994-2022
                       Pacific Northwest National Laboratory
                            Battelle Memorial Institute

             NWChem is an open-source computational chemistry package
                        distributed under the terms of the
                      Educational Community License (ECL) 2.0
             A copy of the license is included with this distribution
                              in the LICENSE.TXT file

                                  ACKNOWLEDGMENT
                                  --------------

            This software and its documentation were developed at the
            EMSL at Pacific Northwest National Laboratory, a multiprogram
            national laboratory, operated for the U.S. Department of Energy
            by Battelle under Contract Number DE-AC05-76RL01830. Support
            for this work was provided by the Department of Energy Office
            of Biological and Environmental Research, Office of Basic
            Energy Sciences, and the Office of Advanced Scientific Computing.


           Job information
           ---------------

    hostname        = CAS-X1HWX6T0HY
    program         = /opt/homebrew/bin/nwchem
    date            = Thu Sep 24 10:30:15 2026

    compiled        = Thu_Dec_26_16:10:57_2024
    source          = /private/tmp/nwchem-20241226-24138-dbs3bh/nwchem-7.2.3
    nwchem branch   = 7.2.3
    nwchem revision = d690e065
    ga revision     = 5.8.0
    use scalapack   = T
    input           = tddft.nw
    prefix          = lif_td.
    data base       = /Users/bldrdge1/Downloads/repos/PlasMol/jobs/final/Step_1/lif/lif_td.db
    status          = startup
    nproc           =        1
    time left       =     -1s



           Memory information
           ------------------

    heap     =   81919996 doubles =    625.0 Mbytes
    stack    =   81920001 doubles =    625.0 Mbytes
    global   =  163840000 doubles =   1250.0 Mbytes (distinct from heap & stack)
    total    =  327679997 doubles =   2500.0 Mbytes
    verify   = yes
    hardfail = no 


           Directory information
           ---------------------

  0 permanent = /Users/bldrdge1/Downloads/repos/PlasMol/jobs/final/Step_1/lif
  0 scratch   = /Users/bldrdge1/Downloads/repos/PlasMol/jobs/final/Step_1/lif




                                NWChem Input Module
                                -------------------


        LiF LR-TDDFT, LC-wPBE mu=0.557662, 6-311G* Cartesian, PBE0 geometry
        -------------------------------------------------------------------

 Scaling coordinates for geometry "geometry" by  1.889725989
 (inverse scale =  0.529177249)



                             Geometry "geometry" -> ""
                             -------------------------

 Output coordinates in angstroms (scale by  1.889725989 to convert to a.u.)

  No.       Tag          Charge          X              Y              Z
 ---- ---------------- ---------- -------------- -------------- --------------
    1 Li                   3.0000    -1.17017679     0.00000000     0.00000000
    2 F                    9.0000     0.39005893     0.00000000     0.00000000

      Atomic Mass 
      ----------- 

      Li                 7.016000
      F                 18.998400


 Effective nuclear repulsion energy (a.u.)       9.1574532872

            Nuclear Dipole moment (a.u.) 
            ----------------------------
        X                 Y               Z
 ---------------- ---------------- ----------------
    -0.0000000000     0.0000000000     0.0000000000


            XYZ format geometry
            -------------------
     2
 geometry
 Li                   -1.17017679     0.00000000     0.00000000
 F                     0.39005893     0.00000000     0.00000000

 ==============================================================================
                                internuclear distances
 ------------------------------------------------------------------------------
       center one      |      center two      | atomic units |  angstroms
 ------------------------------------------------------------------------------
    2 F                |   1 Li               |     2.94842  |     1.56024
 ------------------------------------------------------------------------------
                         number of included internuclear distances:          1
 ==============================================================================



  library name resolved from: .nwchemrc
  library file name is: </opt/homebrew/Cellar/nwchem/7.2.3_1/share/nwchem/libraries/>
  


 Summary of "ao basis" -> "" (cartesian)
 ------------------------------------------------------------------------------
       Tag                 Description            Shells   Functions and Types
 ---------------- ------------------------------  ------  ---------------------
 *                          6-311G*                   on all atoms 


  pbe96 is a nonlocal functional; adding pw91lda local functional. 

                                 NWChem DFT Module
                                 -----------------


        LiF LR-TDDFT, LC-wPBE mu=0.557662, 6-311G* Cartesian, PBE0 geometry


                      Basis "ao basis" -> "ao basis" (cartesian)
                      -----
  Li (Lithium)
  ------------
            Exponent  Coefficients 
       -------------- ---------------------------------------------------------
  1 S  9.00460000E+02  0.002287
  1 S  1.34433000E+02  0.017635
  1 S  3.04365000E+01  0.087343
  1 S  8.62639000E+00  0.280977
  1 S  2.48332000E+00  0.658741
  1 S  3.03179000E-01  0.118712

  2 S  4.86890000E+00  0.093329
  2 S  8.56924000E-01  0.943045
  2 S  2.43227000E-01 -0.002798

  3 P  4.86890000E+00  0.032766
  3 P  8.56924000E-01  0.159792
  3 P  2.43227000E-01  0.885667

  4 S  6.35070000E-02  1.000000

  5 P  6.35070000E-02  1.000000

  6 S  2.43683000E-02  1.000000

  7 P  2.43683000E-02  1.000000

  8 D  2.00000000E-01  1.000000

  F (Fluorine)
  ------------
            Exponent  Coefficients 
       -------------- ---------------------------------------------------------
  1 S  1.14271000E+04  0.001801
  1 S  1.72235000E+03  0.013742
  1 S  3.95746000E+02  0.068133
  1 S  1.15139000E+02  0.233325
  1 S  3.36026000E+01  0.589086
  1 S  4.91901000E+00  0.299505

  2 S  5.54441000E+01  0.114536
  2 S  1.26323000E+01  0.920512
  2 S  3.71756000E+00 -0.003378

  3 P  5.54441000E+01  0.035461
  3 P  1.26323000E+01  0.237451
  3 P  3.71756000E+00  0.820458

  4 S  1.16545000E+00  1.000000

  5 P  1.16545000E+00  1.000000

  6 S  3.21892000E-01  1.000000

  7 P  3.21892000E-01  1.000000

  8 D  1.75000000E+00  1.000000



 Summary of "ao basis" -> "ao basis" (cartesian)
 ------------------------------------------------------------------------------
       Tag                 Description            Shells   Functions and Types
 ---------------- ------------------------------  ------  ---------------------
 Li                         6-311G*                  8       19   4s3p1d
 F                          6-311G*                  8       19   4s3p1d




 Summary of "ao basis" -> "ao basis" (cartesian)
 ------------------------------------------------------------------------------
       Tag                 Description            Shells   Functions and Types
 ---------------- ------------------------------  ------  ---------------------
 Li                         6-311G*                  8       19   4s3p1d
 F                          6-311G*                  8       19   4s3p1d


  int_init: cando_txs set to always be  F
  Caching 1-el integrals 

            General Information
            -------------------
          SCF calculation type: DFT
          Wavefunction type:  closed shell.
          No. of atoms     :     2
          No. of electrons :    12
           Alpha electrons :     6
            Beta electrons :     6
          Charge           :     0
          Spin multiplicity:     1
          Use of symmetry is: off; symmetry adaption is: off
          Maximum number of iterations: 100
          AO basis - number of functions:    38
                     number of shells:    16
          Convergence on energy requested:  1.00D-07
          Convergence on density requested:  1.00D-05
          Convergence on gradient requested:  5.00D-04

              XC Information
              --------------
                     Hartree-Fock (Exact) Exchange  1.000          
                     LC-wPBE(h)Exchange Functional  1.000          
            Perdew 1991 LDA Correlation Functional  1.000 local    
           PerdewBurkeErnz. Correlation Functional  1.000 non-local

           Range-Separation Parameters        
           ---------------------------
           Alpha           :  0.00
           Beta            :  1.00
           Gamma           :  0.56
           Short-Range HF  :     F

             Grid Information
             ----------------
          Grid used for XC integration:  fine      
          Radial quadrature: Mura-Knowles        
          Angular quadrature: Lebedev. 
          Tag              B.-S. Rad. Rad. Pts. Rad. Cut. Ang. Pts.
          ---              ---------- --------- --------- ---------
          Li                  1.45       70          11.0       590
          F                   0.50       70           7.0       590
          Grid pruning is: on 
          Number of quadrature shells:   140
          Spatial weights used:  Erf1

          Convergence Information
          -----------------------
          Convergence aids based upon iterative change in 
          total energy or number of iterations. 
          Levelshifting, if invoked, occurs when the 
          HOMO/LUMO gap drops below (HL_TOL):  1.00D-02
          DIIS, if invoked, will attempt to extrapolate 
          using up to (NFOCK): 10 stored Fock matrices.

                    Damping( 0%)  Levelshifting(0.5)       DIIS
                  --------------- ------------------- ---------------
          dE  on:    start            ASAP                start   
          dE off:    2 iters        100 iters           100 iters 


      Screening Tolerance Information
      -------------------------------
          Density screening/tol_rho:  1.00D-10
          AO Gaussian exp screening on grid/accAOfunc:  16
          CD Gaussian exp screening on grid/accCDfunc:  20
          XC Gaussian exp screening on grid/accXCfunc:  20
          Schwarz screening/accCoul:  1.00D-08

  
  CAM type calculations without CDFIT are
  only available with the direct option.
  Forcing Direct SCF
  

      Superposition of Atomic Density Guess
      -------------------------------------

 Sum of atomic energies:        -106.83727920

      Non-variational initial energy
      ------------------------------

 Total energy =    -106.562896
 1-e energy   =    -166.668032
 2-e energy   =      50.947683
 HOMO         =      -0.661581
 LUMO         =      -0.058271

  WARNING: movecs_in_org=atomic not equal to movecs_in=/Users/bldrdge1/Downloads/repos/PlasMol/jobs/final/Step_1/lif/lif_td.movecs
   Time after variat. SCF:      0.0
   Time prior to 1st pass:      0.0

 Grid_pts file          = /Users/bldrdge1/Downloads/repos/PlasMol/jobs/final/Step_1/lif/lif_td.gridpts.0
 Record size in doubles =  12289        No. of grid_pts per rec  =   3070
 Max. records in memory =     31        Max. recs in file   =    833298


           Memory utilization after 1st SCF pass: 
           Heap Space remaining (MW):       81.54            81538428
          Stack Space remaining (MW):       81.92            81919668

   convergence    iter        energy       DeltaE   RMS-Dens  Diis-err    time
 ---------------- ----- ----------------- --------- --------- ---------  ------
 d= 0,ls=0.0,diis     1   -107.3020688985 -1.16D+02  1.70D-02  1.06D+00     0.2
 d= 0,ls=0.0,diis     2   -107.3193780549 -1.73D-02  7.42D-03  1.15D+00     0.3
 d= 0,ls=0.0,diis     3   -107.3900059865 -7.06D-02  6.94D-04  1.50D-03     0.4
 d= 0,ls=0.0,diis     4   -107.3902237821 -2.18D-04  1.63D-04  5.05D-05     0.5
 d= 0,ls=0.0,diis     5   -107.3902335558 -9.77D-06  4.16D-05  1.56D-06     0.6
 d= 0,ls=0.0,diis     6   -107.3902340722 -5.16D-07  7.69D-06  3.79D-08     0.7
 d= 0,ls=0.0,diis     7   -107.3902340876 -1.54D-08  1.56D-06  1.29D-09     0.8


         Total DFT energy =     -107.390234087582
      One electron energy =     -169.513537167801
           Coulomb energy =       65.365888418635
    Exchange-Corr. energy =      -12.400038625662
 Nuclear repulsion energy =        9.157453287245

 Numeric. integr. density =       11.999999710968

     Total iterative time =      0.8s



                       DFT Final Molecular Orbital Analysis
                       ------------------------------------

 Vector    1  Occ=2.000000D+00  E=-2.435289D+01
              MO Center=  3.9D-01, -3.2D-15,  4.3D-15, r^2= 1.2D-02
   Bfn.  Coefficient  Atom+Function         Bfn.  Coefficient  Atom+Function  
  ----- ------------  ---------------      ----- ------------  ---------------
    20      0.548730  2 F  s                 21      0.467365  2 F  s          

 Vector    2  Occ=2.000000D+00  E=-2.138886D+00
              MO Center= -1.2D+00,  1.4D-14, -1.7D-13, r^2= 1.3D-01
   Bfn.  Coefficient  Atom+Function         Bfn.  Coefficient  Atom+Function  
  ----- ------------  ---------------      ----- ------------  ---------------
     1      0.614549  1 Li s                  2      0.419550  1 Li s          
     6      0.032706  1 Li s                 29      0.030916  2 F  s          

 Vector    3  Occ=2.000000D+00  E=-1.166918D+00
              MO Center=  3.5D-01, -1.2D-12,  6.2D-13, r^2= 3.9D-01
   Bfn.  Coefficient  Atom+Function         Bfn.  Coefficient  Atom+Function  
  ----- ------------  ---------------      ----- ------------  ---------------
    25      0.602241  2 F  s                 29      0.509823  2 F  s          
    21     -0.206045  2 F  s                 20     -0.126580  2 F  s          
     1     -0.048297  1 Li s                  2     -0.043551  1 Li s          
     6      0.029302  1 Li s                  3      0.028831  1 Li px         

 Vector    4  Occ=2.000000D+00  E=-4.400643D-01
              MO Center=  3.9D-01,  3.0D-12, -1.8D-12, r^2= 5.5D-01
   Bfn.  Coefficient  Atom+Function         Bfn.  Coefficient  Atom+Function  
  ----- ------------  ---------------      ----- ------------  ---------------
    30      0.438123  2 F  px                26      0.427818  2 F  px         
    22      0.306255  2 F  px                 3     -0.104262  1 Li px         
     6     -0.093326  1 Li s                 29      0.069078  2 F  s          
     1      0.068444  1 Li s                  2      0.067649  1 Li s          
    10      0.062135  1 Li s                 25      0.056026  2 F  s          

 Vector    5  Occ=2.000000D+00  E=-4.239681D-01
              MO Center=  3.4D-01, -2.0D-12,  3.9D-12, r^2= 6.1D-01
   Bfn.  Coefficient  Atom+Function         Bfn.  Coefficient  Atom+Function  
  ----- ------------  ---------------      ----- ------------  ---------------
    32     -0.307541  2 F  pz                31      0.305156  2 F  py         
    28     -0.301997  2 F  pz                27      0.299654  2 F  py         
    24     -0.216077  2 F  pz                23      0.214401  2 F  py         
     9     -0.069901  1 Li pz                 8      0.069359  1 Li py         
    16     -0.058382  1 Li dxz               15      0.057929  1 Li dxy        

 Vector    6  Occ=2.000000D+00  E=-4.239681D-01
              MO Center=  3.4D-01,  4.4D-12,  4.5D-12, r^2= 6.1D-01
   Bfn.  Coefficient  Atom+Function         Bfn.  Coefficient  Atom+Function  
  ----- ------------  ---------------      ----- ------------  ---------------
    31      0.307541  2 F  py                32      0.305156  2 F  pz         
    27      0.301997  2 F  py                28      0.299654  2 F  pz         
    23      0.216077  2 F  py                24      0.214401  2 F  pz         
     8      0.069901  1 Li py                 9      0.069359  1 Li pz         
    15      0.058382  1 Li dxy               16      0.057929  1 Li dxz        

 Vector    7  Occ=0.000000D+00  E=-3.819695D-03
              MO Center= -2.7D+00,  3.8D-09,  4.8D-10, r^2= 7.7D+00
   Bfn.  Coefficient  Atom+Function         Bfn.  Coefficient  Atom+Function  
  ----- ------------  ---------------      ----- ------------  ---------------
    10      0.994067  1 Li s                 11     -0.393396  1 Li px         
     6     -0.242228  1 Li s                  7     -0.125138  1 Li px         
     3     -0.061056  1 Li px                14      0.058038  1 Li dxx        
     1     -0.054708  1 Li s                  2     -0.042358  1 Li s          
    17      0.040028  1 Li dyy               19      0.040028  1 Li dzz        

 Vector    8  Occ=0.000000D+00  E= 4.906915D-02
              MO Center= -1.2D+00,  1.4D-11, -5.7D-10, r^2= 1.6D+01
   Bfn.  Coefficient  Atom+Function         Bfn.  Coefficient  Atom+Function  
  ----- ------------  ---------------      ----- ------------  ---------------
    13      1.165665  1 Li pz                 9     -0.252578  1 Li pz         
     5      0.068638  1 Li pz                32     -0.065528  2 F  pz         
    16     -0.061591  1 Li dxz               28     -0.050756  2 F  pz         
    24     -0.038661  2 F  pz         

 Vector    9  Occ=0.000000D+00  E= 4.906915D-02
              MO Center= -1.2D+00,  1.7D-09,  2.4D-12, r^2= 1.6D+01
   Bfn.  Coefficient  Atom+Function         Bfn.  Coefficient  Atom+Function  
  ----- ------------  ---------------      ----- ------------  ---------------
    12      1.165665  1 Li py                 8     -0.252578  1 Li py         
     4      0.068638  1 Li py                31     -0.065528  2 F  py         
    15     -0.061591  1 Li dxy               27     -0.050756  2 F  py         
    23     -0.038661  2 F  py         

 Vector   10  Occ=0.000000D+00  E= 7.933722D-02
              MO Center= -1.9D-02, -1.4D-09, -1.6D-10, r^2= 1.6D+01
   Bfn.  Coefficient  Atom+Function         Bfn.  Coefficient  Atom+Function  
  ----- ------------  ---------------      ----- ------------  ---------------
    11      1.290793  1 Li px                 7     -0.635259  1 Li px         
    10      0.443075  1 Li s                 30     -0.079084  2 F  px         
    25     -0.070987  2 F  s                 14     -0.063876  1 Li dxx        
    17      0.047420  1 Li dyy               19      0.047420  1 Li dzz        
     6     -0.044782  1 Li s                  2     -0.043108  1 Li s          

 Vector   11  Occ=0.000000D+00  E= 1.164489D-01
              MO Center= -1.9D+00,  5.3D-10,  1.2D-09, r^2= 1.0D+01
   Bfn.  Coefficient  Atom+Function         Bfn.  Coefficient  Atom+Function  
  ----- ------------  ---------------      ----- ------------  ---------------
     6      2.291435  1 Li s                 10     -1.728016  1 Li s          
     7     -0.627207  1 Li px                11      0.316653  1 Li px         
     2     -0.272275  1 Li s                 17     -0.208435  1 Li dyy        
    19     -0.208435  1 Li dzz               30      0.128967  2 F  px         
    14     -0.083745  1 Li dxx                1     -0.066735  1 Li s          

 Vector   12  Occ=0.000000D+00  E= 1.688849D-01
              MO Center= -1.3D+00, -1.4D-10, -1.3D-09, r^2= 8.5D+00
   Bfn.  Coefficient  Atom+Function         Bfn.  Coefficient  Atom+Function  
  ----- ------------  ---------------      ----- ------------  ---------------
     9      1.403756  1 Li pz                13     -0.964585  1 Li pz         
     8      0.352422  1 Li py                12     -0.242165  1 Li py         
    32     -0.160110  2 F  pz                16     -0.154555  1 Li dxz        
     5      0.096343  1 Li pz                28     -0.078650  2 F  pz         
    24     -0.067472  2 F  pz                31     -0.040197  2 F  py         

 Vector   13  Occ=0.000000D+00  E= 1.688849D-01
              MO Center= -1.3D+00, -2.9D-09,  8.9D-10, r^2= 8.5D+00
   Bfn.  Coefficient  Atom+Function         Bfn.  Coefficient  Atom+Function  
  ----- ------------  ---------------      ----- ------------  ---------------
     8      1.403756  1 Li py                12     -0.964585  1 Li py         
     9     -0.352422  1 Li pz                13      0.242165  1 Li pz         
    31     -0.160110  2 F  py                15     -0.154555  1 Li dxy        
     4      0.096343  1 Li py                27     -0.078650  2 F  py         
    23     -0.067472  2 F  py                32      0.040197  2 F  pz         

 Vector   14  Occ=0.000000D+00  E= 2.643341D-01
              MO Center= -4.4D-01, -8.9D-10, -3.3D-10, r^2= 7.1D+00
   Bfn.  Coefficient  Atom+Function         Bfn.  Coefficient  Atom+Function  
  ----- ------------  ---------------      ----- ------------  ---------------
     7      1.494216  1 Li px                 6      1.484166  1 Li s          
    11     -0.800295  1 Li px                10     -0.692967  1 Li s          
    29     -0.572171  2 F  s                 14     -0.206294  1 Li dxx        
     2     -0.190619  1 Li s                 25     -0.118639  2 F  s          
    30      0.082433  2 F  px                 3     -0.068025  1 Li px         

 Vector   15  Occ=0.000000D+00  E= 5.541817D-01
              MO Center= -1.2D+00, -3.7D-11, -3.9D-11, r^2= 3.8D+00
   Bfn.  Coefficient  Atom+Function         Bfn.  Coefficient  Atom+Function  
  ----- ------------  ---------------      ----- ------------  ---------------
     9     -1.259097  1 Li pz                 5      1.221645  1 Li pz         
    13      0.584516  1 Li pz                16     -0.460737  1 Li dxz        
     8      0.084714  1 Li py                 4     -0.082195  1 Li py         
    32      0.082093  2 F  pz                12     -0.039327  1 Li py         
    15      0.030999  1 Li dxy        

 Vector   16  Occ=0.000000D+00  E= 5.541817D-01
              MO Center= -1.2D+00,  9.9D-10,  2.1D-11, r^2= 3.8D+00
   Bfn.  Coefficient  Atom+Function         Bfn.  Coefficient  Atom+Function  
  ----- ------------  ---------------      ----- ------------  ---------------
     8     -1.259097  1 Li py                 4      1.221645  1 Li py         
    12      0.584516  1 Li py                15     -0.460737  1 Li dxy        
     9     -0.084714  1 Li pz                 5      0.082195  1 Li pz         
    31      0.082093  2 F  py                13      0.039327  1 Li pz         
    16     -0.030999  1 Li dxz        

 Vector   17  Occ=0.000000D+00  E= 5.644137D-01
              MO Center= -1.7D+00, -7.3D-10, -2.5D-10, r^2= 4.0D+00
   Bfn.  Coefficient  Atom+Function         Bfn.  Coefficient  Atom+Function  
  ----- ------------  ---------------      ----- ------------  ---------------
    14     -1.386872  1 Li dxx                6      1.300081  1 Li s          
     7     -1.273628  1 Li px                 3      0.775914  1 Li px         
    29      0.751693  2 F  s                 11      0.524398  1 Li px         
    10     -0.488620  1 Li s                  2     -0.260744  1 Li s          
    26      0.107404  2 F  px                17     -0.085548  1 Li dyy        

 Vector   18  Occ=0.000000D+00  E= 5.732147D-01
              MO Center= -1.2D+00, -9.8D-11, -9.6D-11, r^2= 2.5D+00
   Bfn.  Coefficient  Atom+Function         Bfn.  Coefficient  Atom+Function  
  ----- ------------  ---------------      ----- ------------  ---------------
    17      0.865697  1 Li dyy               19     -0.865697  1 Li dzz        

 Vector   19  Occ=0.000000D+00  E= 5.732178D-01
              MO Center= -1.2D+00, -2.4D-10, -2.3D-10, r^2= 2.5D+00
   Bfn.  Coefficient  Atom+Function         Bfn.  Coefficient  Atom+Function  
  ----- ------------  ---------------      ----- ------------  ---------------
    18      1.731394  1 Li dyz        

 Vector   20  Occ=0.000000D+00  E= 6.494619D-01
              MO Center= -1.1D+00,  2.9D-11,  3.3D-11, r^2= 2.4D+00
   Bfn.  Coefficient  Atom+Function         Bfn.  Coefficient  Atom+Function  
  ----- ------------  ---------------      ----- ------------  ---------------
    16     -1.340736  1 Li dxz               15      1.331452  1 Li dxy        
    32      0.261544  2 F  pz                31     -0.259733  2 F  py         
     5     -0.244286  1 Li pz                 4      0.242594  1 Li py         
    28      0.102181  2 F  pz                27     -0.101473  2 F  py         
    24      0.077179  2 F  pz                23     -0.076645  2 F  py         

 Vector   21  Occ=0.000000D+00  E= 6.494619D-01
              MO Center= -1.1D+00,  8.9D-11,  9.2D-11, r^2= 2.4D+00
   Bfn.  Coefficient  Atom+Function         Bfn.  Coefficient  Atom+Function  
  ----- ------------  ---------------      ----- ------------  ---------------
    15      1.340736  1 Li dxy               16      1.331452  1 Li dxz        
    31     -0.261544  2 F  py                32     -0.259733  2 F  pz         
     4      0.244286  1 Li py                 5      0.242594  1 Li pz         
    27     -0.102181  2 F  py                28     -0.101473  2 F  pz         
    23     -0.077179  2 F  py                24     -0.076645  2 F  pz         

 Vector   22  Occ=0.000000D+00  E= 6.649547D-01
              MO Center= -9.8D-01, -5.9D-10,  2.3D-10, r^2= 7.4D+00
   Bfn.  Coefficient  Atom+Function         Bfn.  Coefficient  Atom+Function  
  ----- ------------  ---------------      ----- ------------  ---------------
     6      4.594914  1 Li s                 17     -1.683877  1 Li dyy        
    19     -1.683877  1 Li dzz               10     -1.514635  1 Li s          
    29     -0.915009  2 F  s                  3      0.736329  1 Li px         
     2     -0.688999  1 Li s                 30      0.547360  2 F  px         
    14     -0.400031  1 Li dxx                1      0.170080  1 Li s          

 Vector   23  Occ=0.000000D+00  E= 9.335606D-01
              MO Center= -1.1D+00, -1.0D-10,  2.0D-12, r^2= 3.7D+00
   Bfn.  Coefficient  Atom+Function         Bfn.  Coefficient  Atom+Function  
  ----- ------------  ---------------      ----- ------------  ---------------
     6      3.275435  1 Li s                 14     -2.368960  1 Li dxx        
     3     -1.276049  1 Li px                29      1.032350  2 F  s          
    17     -0.955011  1 Li dyy               19     -0.955011  1 Li dzz        
    10     -0.918783  1 Li s                  2     -0.676461  1 Li s          
    30     -0.628263  2 F  px                25      0.274844  2 F  s          

 Vector   24  Occ=0.000000D+00  E= 1.389350D+00
              MO Center=  4.1D-01, -5.6D-13, -1.0D-10, r^2= 1.4D+00
   Bfn.  Coefficient  Atom+Function         Bfn.  Coefficient  Atom+Function  
  ----- ------------  ---------------      ----- ------------  ---------------
    32      1.431962  2 F  pz                28     -0.800661  2 F  pz         
    16     -0.788826  1 Li dxz                9     -0.292566  1 Li pz         
    24     -0.256700  2 F  pz                 5     -0.168204  1 Li pz         
    13      0.086106  1 Li pz                35      0.041755  2 F  dxz        

 Vector   25  Occ=0.000000D+00  E= 1.389350D+00
              MO Center=  4.1D-01, -5.0D-11, -7.5D-13, r^2= 1.4D+00
   Bfn.  Coefficient  Atom+Function         Bfn.  Coefficient  Atom+Function  
  ----- ------------  ---------------      ----- ------------  ---------------
    31      1.431962  2 F  py                27     -0.800661  2 F  py         
    15     -0.788826  1 Li dxy                8     -0.292566  1 Li py         
    23     -0.256700  2 F  py                 4     -0.168204  1 Li py         
    12      0.086106  1 Li py                34      0.041755  2 F  dxy        

 Vector   26  Occ=0.000000D+00  E= 1.404847D+00
              MO Center=  5.7D-01,  3.7D-11,  8.8D-11, r^2= 1.7D+00
   Bfn.  Coefficient  Atom+Function         Bfn.  Coefficient  Atom+Function  
  ----- ------------  ---------------      ----- ------------  ---------------
     6      1.470204  1 Li s                 30     -1.260337  2 F  px         
    26      0.738029  2 F  px                17     -0.679443  1 Li dyy        
    19     -0.679443  1 Li dzz               29     -0.585998  2 F  s          
    25      0.427987  2 F  s                  7      0.360101  1 Li px         
     3     -0.348316  1 Li px                14     -0.342517  1 Li dxx        

 Vector   27  Occ=0.000000D+00  E= 1.879009D+00
              MO Center= -2.9D-01, -2.4D-13,  1.3D-12, r^2= 2.0D+00
   Bfn.  Coefficient  Atom+Function         Bfn.  Coefficient  Atom+Function  
  ----- ------------  ---------------      ----- ------------  ---------------
    29      3.292633  2 F  s                 14     -1.425924  1 Li dxx        
    25     -1.399265  2 F  s                 30     -1.210873  2 F  px         
     3     -1.146056  1 Li px                 7     -0.632930  1 Li px         
    17     -0.274587  1 Li dyy               19     -0.274587  1 Li dzz        
    26      0.275377  2 F  px                 1     -0.258897  1 Li s          

 Vector   28  Occ=0.000000D+00  E= 3.843113D+00
              MO Center= -4.5D-01, -1.1D-11,  3.1D-12, r^2= 1.5D+00
   Bfn.  Coefficient  Atom+Function         Bfn.  Coefficient  Atom+Function  
  ----- ------------  ---------------      ----- ------------  ---------------
     2      1.642433  1 Li s                  1     -1.297579  1 Li s          
     6     -1.276076  1 Li s                 33      0.642674  2 F  dxx        
    14      0.628684  1 Li dxx               29     -0.608318  2 F  s          
    10      0.458151  1 Li s                 30      0.449890  2 F  px         
    17      0.341950  1 Li dyy               19      0.341950  1 Li dzz        

 Vector   29  Occ=0.000000D+00  E= 4.125077D+00
              MO Center=  3.9D-01, -2.6D-13,  5.8D-14, r^2= 2.9D-01
   Bfn.  Coefficient  Atom+Function         Bfn.  Coefficient  Atom+Function  
  ----- ------------  ---------------      ----- ------------  ---------------
    37      1.733136  2 F  dyz               18     -0.079310  1 Li dyz        

 Vector   30  Occ=0.000000D+00  E= 4.125077D+00
              MO Center=  3.9D-01, -3.2D-14, -3.6D-14, r^2= 2.9D-01
   Bfn.  Coefficient  Atom+Function         Bfn.  Coefficient  Atom+Function  
  ----- ------------  ---------------      ----- ------------  ---------------
    36      0.866568  2 F  dyy               38     -0.866568  2 F  dzz        
    17     -0.039655  1 Li dyy               19      0.039655  1 Li dzz        

 Vector   31  Occ=0.000000D+00  E= 4.170168D+00
              MO Center=  3.6D-01,  2.2D-13, -1.6D-13, r^2= 3.4D-01
   Bfn.  Coefficient  Atom+Function         Bfn.  Coefficient  Atom+Function  
  ----- ------------  ---------------      ----- ------------  ---------------
    35     -1.276369  2 F  dxz               34      1.184671  2 F  dxy        
    16     -0.185685  1 Li dxz               15      0.172345  1 Li dxy        
    32      0.087938  2 F  pz                31     -0.081620  2 F  py         
     5     -0.068464  1 Li pz                 4      0.063546  1 Li py         
    24     -0.033523  2 F  pz                23      0.031114  2 F  py         

 Vector   32  Occ=0.000000D+00  E= 4.170168D+00
              MO Center=  3.6D-01,  4.0D-13, -1.2D-13, r^2= 3.4D-01
   Bfn.  Coefficient  Atom+Function         Bfn.  Coefficient  Atom+Function  
  ----- ------------  ---------------      ----- ------------  ---------------
    34      1.276369  2 F  dxy               35      1.184671  2 F  dxz        
    15      0.185685  1 Li dxy               16      0.172345  1 Li dxz        
    31     -0.087938  2 F  py                32     -0.081620  2 F  pz         
     4      0.068464  1 Li py                 5      0.063546  1 Li pz         
    23      0.033523  2 F  py                24      0.031114  2 F  pz         

 Vector   33  Occ=0.000000D+00  E= 4.420071D+00
              MO Center= -2.2D-01,  1.1D-12, -3.9D-12, r^2= 9.8D-01
   Bfn.  Coefficient  Atom+Function         Bfn.  Coefficient  Atom+Function  
  ----- ------------  ---------------      ----- ------------  ---------------
     2      1.435951  1 Li s                  1     -1.100262  1 Li s          
    29     -0.918914  2 F  s                  6     -0.809937  1 Li s          
    33     -0.797589  2 F  dxx               14      0.695817  1 Li dxx        
     3      0.615351  1 Li px                30      0.614465  2 F  px         
    25      0.419956  2 F  s                 36      0.370741  2 F  dyy        

 Vector   34  Occ=0.000000D+00  E= 6.428010D+00
              MO Center=  4.1D-01, -4.9D-13, -5.5D-13, r^2= 3.7D-01
   Bfn.  Coefficient  Atom+Function         Bfn.  Coefficient  Atom+Function  
  ----- ------------  ---------------      ----- ------------  ---------------
    28      1.043968  2 F  pz                27      0.966838  2 F  py         
    24     -0.919712  2 F  pz                23     -0.851762  2 F  py         
    32     -0.491657  2 F  pz                31     -0.455332  2 F  py         
    16      0.159404  1 Li dxz               15      0.147627  1 Li dxy        
     9      0.085846  1 Li pz                 8      0.079504  1 Li py         

 Vector   35  Occ=0.000000D+00  E= 6.428010D+00
              MO Center=  4.1D-01,  4.7D-13, -3.7D-13, r^2= 3.7D-01
   Bfn.  Coefficient  Atom+Function         Bfn.  Coefficient  Atom+Function  
  ----- ------------  ---------------      ----- ------------  ---------------
    27      1.043968  2 F  py                28     -0.966838  2 F  pz         
    23     -0.919712  2 F  py                24      0.851762  2 F  pz         
    31     -0.491657  2 F  py                32      0.455332  2 F  pz         
    15      0.159404  1 Li dxy               16     -0.147627  1 Li dxz        
     8      0.085846  1 Li py                 9     -0.079504  1 Li pz         

 Vector   36  Occ=0.000000D+00  E= 6.509442D+00
              MO Center=  4.5D-01,  2.1D-13,  4.9D-13, r^2= 4.3D-01
   Bfn.  Coefficient  Atom+Function         Bfn.  Coefficient  Atom+Function  
  ----- ------------  ---------------      ----- ------------  ---------------
    26      1.467098  2 F  px                22     -1.250054  2 F  px         
    30     -0.829843  2 F  px                 6      0.457161  1 Li s          
     2     -0.434575  1 Li s                 29      0.295224  2 F  s          
    25     -0.278560  2 F  s                 14     -0.272442  1 Li dxx        
     3     -0.239768  1 Li px                17     -0.225478  1 Li dyy        

 Vector   37  Occ=0.000000D+00  E= 8.621122D+00
              MO Center=  3.2D-01, -3.2D-13,  5.9D-13, r^2= 4.5D-01
   Bfn.  Coefficient  Atom+Function         Bfn.  Coefficient  Atom+Function  
  ----- ------------  ---------------      ----- ------------  ---------------
    25      2.808899  2 F  s                 36     -1.604451  2 F  dyy        
    38     -1.604451  2 F  dzz               33     -1.540308  2 F  dxx        
    29      1.488408  2 F  s                 21     -0.722648  2 F  s          
    14     -0.465245  1 Li dxx               30     -0.427268  2 F  px         
     3     -0.368182  1 Li px                 2     -0.319451  1 Li s          

 Vector   38  Occ=0.000000D+00  E= 7.388129D+01
              MO Center=  3.9D-01, -6.7D-16,  1.1D-15, r^2= 5.2D-02
   Bfn.  Coefficient  Atom+Function         Bfn.  Coefficient  Atom+Function  
  ----- ------------  ---------------      ----- ------------  ---------------
    21      2.783547  2 F  s                 20     -2.399914  2 F  s          
    25     -1.150130  2 F  s                 36      0.560784  2 F  dyy        
    38      0.560784  2 F  dzz               33      0.553024  2 F  dxx        
    29     -0.369081  2 F  s                 14      0.110115  1 Li dxx        
    30      0.092146  2 F  px                 3      0.086910  1 Li px         


 center of mass
 --------------
 x =  -0.05807435 y =   0.00000000 z =   0.00000000

 moments of inertia (a.u.)
 ------------------
           0.000000000000           0.000000000000           0.000000000000
           0.000000000000          44.542121501615           0.000000000000
           0.000000000000           0.000000000000          44.542121501615

     Multipole analysis of the density
     ---------------------------------

     L   x y z        total         alpha         beta         nuclear
     -   - - -        -----         -----         ----         -------
     0   0 0 0     -0.000000     -6.000000     -6.000000     12.000000

     1   1 0 0     -2.371378     -1.185689     -1.185689     -0.000000
     1   0 1 0     -0.000000     -0.000000     -0.000000      0.000000
     1   0 0 1     -0.000000     -0.000000     -0.000000      0.000000

     2   2 0 0     -0.653480    -10.106555    -10.106555     19.559629
     2   1 1 0      0.000000      0.000000      0.000000      0.000000
     2   1 0 1      0.000000      0.000000      0.000000      0.000000
     2   0 2 0     -5.313902     -2.656951     -2.656951      0.000000
     2   0 1 1     -0.000000     -0.000000     -0.000000      0.000000
     2   0 0 2     -5.313902     -2.656951     -2.656951      0.000000

  int_init: cando_txs set to always be  F
                                NWChem TDDFT Module
                                -------------------


        LiF LR-TDDFT, LC-wPBE mu=0.557662, 6-311G* Cartesian, PBE0 geometry


            General Information
            -------------------
           No. of orbitals :      76
            Alpha orbitals :      38
             Beta orbitals :      38
        Alpha frozen cores :       0
         Beta frozen cores :       0
     Alpha frozen virtuals :       0
      Beta frozen virtuals :       0
         Spin multiplicity :       1
    Number of AO functions :      38
        Use of symmetry is : off
      Symmetry adaption is : off
         Schwarz screening :  0.10D-07

              XC Information
              --------------
              Hartree-Fock (Exact) Exchange   1.00          
              LC-wPBE(h)Exchange Functional   1.00          
     Perdew 1991 LDA Correlation Functional   1.00 local    
    PerdewBurkeErnz. Correlation Functional   1.00 non-local
           Alpha           :  0.00
           Beta            :  1.00
           Gamma           :  0.56

             TDDFT Information
             -----------------
          Calculation type : TDDFT             
         Wavefunction type : Restricted singlets
          No. of electrons :      12
           Alpha electrons :       6
            Beta electrons :       6
              No. of roots :      24
          Max subspacesize :    8800
            Max iterations :     100
               Target root :       1
           Target symmetry : none
      Symmetry restriction : off
                 Algorithm : Optimal
        Davidson threshold :  0.10D-03

            Memory Information
            ------------------
          Available GA space size is         163838556 doubles
          Available MA space size is         163839332 doubles
          Length of a trial vector is          192
          Algorithm : Incore multiple tensor contraction
          Estimated peak GA usage is           7050640 doubles
          Estimated peak MA usage is            405600 doubles

   24 smallest eigenvalue differences (eV) 
--------------------------------------------------------
  No. Spin  Occ  Vir  Irrep   E(Occ)    E(Vir)   E(Diff)
--------------------------------------------------------
    1    1    6    7 a        -0.424    -0.004    11.433
    2    1    5    7 a        -0.424    -0.004    11.433
    3    1    4    7 a        -0.440    -0.004    11.871
    4    1    6    8 a        -0.424     0.049    12.872
    5    1    5    8 a        -0.424     0.049    12.872
    6    1    6    9 a        -0.424     0.049    12.872
    7    1    5    9 a        -0.424     0.049    12.872
    8    1    4    8 a        -0.440     0.049    13.310
    9    1    4    9 a        -0.440     0.049    13.310
   10    1    6   10 a        -0.424     0.079    13.696
   11    1    5   10 a        -0.424     0.079    13.696
   12    1    4   10 a        -0.440     0.079    14.134
   13    1    6   11 a        -0.424     0.116    14.706
   14    1    5   11 a        -0.424     0.116    14.706
   15    1    4   11 a        -0.440     0.116    15.144
   16    1    6   12 a        -0.424     0.169    16.132
   17    1    5   12 a        -0.424     0.169    16.132
   18    1    6   13 a        -0.424     0.169    16.132
   19    1    5   13 a        -0.424     0.169    16.132
   20    1    4   12 a        -0.440     0.169    16.570
   21    1    4   13 a        -0.440     0.169    16.570
   22    1    6   14 a        -0.424     0.264    18.730
   23    1    5   14 a        -0.424     0.264    18.730
   24    1    4   14 a        -0.440     0.264    19.168
--------------------------------------------------------

  Entering Davidson iterations
  Restricted singlet excited states

  Iter   NTrls   NConv    DeltaV     DeltaE      Time   
  ----  ------  ------  ---------  ---------  --------- 
    1     24       0     0.31E+00   0.10+100        1.7
    2     72       0     0.37E-01   0.17E-01        3.0
    3    117       6     0.26E-02   0.20E-03        3.0
    4    151      23     0.14E-03   0.57E-06        2.3
    5    152      23     0.11E-03   0.55E-09        0.4
    6    153      24     0.99E-04   0.83E-09        0.4
  ----  ------  ------  ---------  ---------  --------- 
  Convergence criterion met

  Ground state a        -107.390234087582 a.u.

  ----------------------------------------------------------------------------
  Root   1 singlet a              0.251583320 a.u.                6.8459 eV 
  ----------------------------------------------------------------------------
     Transition Moments    X -0.00000   Y  0.33775   Z  0.33805
     Transition Moments   XX  0.00000  XY -0.54166  XZ -0.54213
     Transition Moments   YY  0.00000  YZ  0.00000  ZZ  0.00000
     Dipole Oscillator Strength                    0.0383001270
     Electric Quadrupole                           0.0000000498
     Magnetic Dipole                               0.0000000402
     Total Oscillator Strength                     0.0383002171

     Occ.    6  a   ---  Virt.    7  a   -0.90773 X
     Occ.    6  a   ---  Virt.   10  a   -0.30595 X
     Occ.    6  a   ---  Virt.   11  a   -0.22137 X
     Occ.    6  a   ---  Virt.   14  a   -0.18094 X
  ----------------------------------------------------------------------------
  Root   2 singlet a              0.251583320 a.u.                6.8459 eV 
  ----------------------------------------------------------------------------
     Transition Moments    X -0.00000   Y  0.33805   Z -0.33775
     Transition Moments   XX  0.00000  XY -0.54213  XZ  0.54166
     Transition Moments   YY  0.00000  YZ -0.00000  ZZ -0.00000
     Dipole Oscillator Strength                    0.0383001270
     Electric Quadrupole                           0.0000000498
     Magnetic Dipole                               0.0000000402
     Total Oscillator Strength                     0.0383002170

     Occ.    5  a   ---  Virt.    7  a   -0.90773 X
     Occ.    5  a   ---  Virt.   10  a   -0.30595 X
     Occ.    5  a   ---  Virt.   11  a   -0.22137 X
     Occ.    5  a   ---  Virt.   14  a   -0.18094 X
  ----------------------------------------------------------------------------
  Root   3 singlet a              0.266211043 a.u.                7.2440 eV 
  ----------------------------------------------------------------------------
     Transition Moments    X -0.20189   Y -0.00000   Z -0.00000
     Transition Moments   XX  0.08016  XY  0.00000  XZ  0.00000
     Transition Moments   YY -0.04983  YZ  0.00000  ZZ -0.04983
     Dipole Oscillator Strength                    0.0072335065
     Electric Quadrupole                           0.0000000006
     Magnetic Dipole                               0.0000000000
     Total Oscillator Strength                     0.0072335070

     Occ.    4  a   ---  Virt.    7  a    0.90316 X
     Occ.    4  a   ---  Virt.   10  a    0.31541 X
     Occ.    4  a   ---  Virt.   11  a    0.22630 X
     Occ.    4  a   ---  Virt.   14  a    0.17674 X
  ----------------------------------------------------------------------------
  Root   4 singlet a              0.309868274 a.u.                8.4319 eV 
  ----------------------------------------------------------------------------
     Transition Moments    X -0.00000   Y  0.00000   Z -0.00000
     Transition Moments   XX  0.00000  XY -0.00000  XZ  0.00000
     Transition Moments   YY -0.00000  YZ -0.00000  ZZ  0.00000
     Dipole Oscillator Strength                    0.0000000000
     Electric Quadrupole                           0.0000000000
     Magnetic Dipole                               0.0000000000
     Total Oscillator Strength                     0.0000000000

     Occ.    5  a   ---  Virt.    8  a    0.44031 X
     Occ.    5  a   ---  Virt.    9  a    0.43512 X
     Occ.    5  a   ---  Virt.   12  a    0.28808 X
     Occ.    5  a   ---  Virt.   13  a    0.17399 X
     Occ.    5  a   ---  Virt.   21  a    0.05437 X
     Occ.    6  a   ---  Virt.    8  a    0.43512 X
     Occ.    6  a   ---  Virt.    9  a   -0.44031 X
     Occ.    6  a   ---  Virt.   12  a    0.17399 X
     Occ.    6  a   ---  Virt.   13  a   -0.28808 X
     Occ.    6  a   ---  Virt.   20  a   -0.05437 X
  ----------------------------------------------------------------------------
  Root   5 singlet a              0.310405809 a.u.                8.4466 eV 
  ----------------------------------------------------------------------------
     Transition Moments    X  0.00000   Y  0.00000   Z  0.00000
     Transition Moments   XX -0.00000  XY -0.00000  XZ -0.00000
     Transition Moments   YY  0.00000  YZ -0.96558  ZZ -0.00000
     Dipole Oscillator Strength                    0.0000000000
     Electric Quadrupole                           0.0000001485
     Magnetic Dipole                               0.0000000000
     Total Oscillator Strength                     0.0000001485

     Occ.    5  a   ---  Virt.    8  a    0.43398 X
     Occ.    5  a   ---  Virt.    9  a   -0.44605 X
     Occ.    5  a   ---  Virt.   12  a    0.16891 X
     Occ.    5  a   ---  Virt.   13  a   -0.28466 X
     Occ.    5  a   ---  Virt.   20  a   -0.05100 X
     Occ.    6  a   ---  Virt.    8  a    0.44605 X
     Occ.    6  a   ---  Virt.    9  a    0.43398 X
     Occ.    6  a   ---  Virt.   12  a    0.28466 X
     Occ.    6  a   ---  Virt.   13  a    0.16891 X
     Occ.    6  a   ---  Virt.   21  a    0.05100 X
  ----------------------------------------------------------------------------
  Root   6 singlet a              0.310406383 a.u.                8.4466 eV 
  ----------------------------------------------------------------------------
     Transition Moments    X  0.00000   Y -0.00000   Z  0.00000
     Transition Moments   XX -0.00000  XY  0.00000  XZ -0.00000
     Transition Moments   YY  0.96558  YZ  0.00000  ZZ -0.96558
     Dipole Oscillator Strength                    0.0000000000
     Electric Quadrupole                           0.0000001485
     Magnetic Dipole                               0.0000000000
     Total Oscillator Strength                     0.0000001485

     Occ.    5  a   ---  Virt.    8  a   -0.44605 X
     Occ.    5  a   ---  Virt.    9  a   -0.43398 X
     Occ.    5  a   ---  Virt.   12  a   -0.28465 X
     Occ.    5  a   ---  Virt.   13  a   -0.16891 X
     Occ.    5  a   ---  Virt.   21  a   -0.05100 X
     Occ.    6  a   ---  Virt.    8  a    0.43398 X
     Occ.    6  a   ---  Virt.    9  a   -0.44605 X
     Occ.    6  a   ---  Virt.   12  a    0.16891 X
     Occ.    6  a   ---  Virt.   13  a   -0.28465 X
     Occ.    6  a   ---  Virt.   20  a   -0.05100 X
  ----------------------------------------------------------------------------
  Root   7 singlet a              0.325847511 a.u.                8.8668 eV 
  ----------------------------------------------------------------------------
     Transition Moments    X -0.00000   Y  0.03056   Z  0.07399
     Transition Moments   XX  0.00000  XY -0.13819  XZ -0.33458
     Transition Moments   YY  0.00000  YZ -0.00000  ZZ  0.00000
     Dipole Oscillator Strength                    0.0013922034
     Electric Quadrupole                           0.0000000241
     Magnetic Dipole                               0.0000002273
     Total Oscillator Strength                     0.0013924548

     Occ.    4  a   ---  Virt.    8  a    0.81144 X
     Occ.    4  a   ---  Virt.    9  a    0.32586 X
     Occ.    4  a   ---  Virt.   12  a    0.47230 X
     Occ.    4  a   ---  Virt.   13  a    0.06932 X
     Occ.    4  a   ---  Virt.   21  a    0.06580 X
  ----------------------------------------------------------------------------
  Root   8 singlet a              0.325847511 a.u.                8.8668 eV 
  ----------------------------------------------------------------------------
     Transition Moments    X -0.00000   Y  0.07399   Z -0.03056
     Transition Moments   XX  0.00000  XY -0.33458  XZ  0.13819
     Transition Moments   YY  0.00000  YZ -0.00000  ZZ  0.00000
     Dipole Oscillator Strength                    0.0013922034
     Electric Quadrupole                           0.0000000241
     Magnetic Dipole                               0.0000002273
     Total Oscillator Strength                     0.0013924548

     Occ.    4  a   ---  Virt.    8  a   -0.32586 X
     Occ.    4  a   ---  Virt.    9  a    0.81144 X
     Occ.    4  a   ---  Virt.   12  a   -0.06932 X
     Occ.    4  a   ---  Virt.   13  a    0.47230 X
     Occ.    4  a   ---  Virt.   20  a    0.06580 X
  ----------------------------------------------------------------------------
  Root   9 singlet a              0.330861460 a.u.                9.0032 eV 
  ----------------------------------------------------------------------------
     Transition Moments    X -0.00000   Y  0.22579   Z  0.23589
     Transition Moments   XX  0.00000  XY  0.29083  XZ  0.30384
     Transition Moments   YY  0.00000  YZ -0.00000  ZZ  0.00000
     Dipole Oscillator Strength                    0.0235184482
     Electric Quadrupole                           0.0000000341
     Magnetic Dipole                               0.0000000007
     Total Oscillator Strength                     0.0235184831

     Occ.    6  a   ---  Virt.    7  a    0.23150 X
     Occ.    6  a   ---  Virt.   10  a   -0.85093 X
     Occ.    6  a   ---  Virt.   11  a    0.40887 X
     Occ.    6  a   ---  Virt.   14  a   -0.22408 X
     Occ.    6  a   ---  Virt.   22  a   -0.05501 X
  ----------------------------------------------------------------------------
  Root  10 singlet a              0.330861460 a.u.                9.0032 eV 
  ----------------------------------------------------------------------------
     Transition Moments    X  0.00000   Y -0.23589   Z  0.22579
     Transition Moments   XX -0.00000  XY -0.30384  XZ  0.29083
     Transition Moments   YY -0.00000  YZ -0.00000  ZZ -0.00000
     Dipole Oscillator Strength                    0.0235184482
     Electric Quadrupole                           0.0000000341
     Magnetic Dipole                               0.0000000007
     Total Oscillator Strength                     0.0235184831

     Occ.    5  a   ---  Virt.    7  a   -0.23150 X
     Occ.    5  a   ---  Virt.   10  a    0.85093 X
     Occ.    5  a   ---  Virt.   11  a   -0.40887 X
     Occ.    5  a   ---  Virt.   14  a    0.22408 X
     Occ.    5  a   ---  Virt.   22  a    0.05501 X
  ----------------------------------------------------------------------------
  Root  11 singlet a              0.335101314 a.u.                9.1186 eV 
  ----------------------------------------------------------------------------
     Transition Moments    X -0.52193   Y -0.00000   Z -0.00000
     Transition Moments   XX  0.82535  XY -0.00000  XZ  0.00000
     Transition Moments   YY  1.26166  YZ -0.00000  ZZ  1.26166
     Dipole Oscillator Strength                    0.0608575017
     Electric Quadrupole                           0.0000000127
     Magnetic Dipole                               0.0000000000
     Total Oscillator Strength                     0.0608575144

     Occ.    4  a   ---  Virt.   10  a    0.26056 X
     Occ.    4  a   ---  Virt.   11  a   -0.14954 X
     Occ.    5  a   ---  Virt.    8  a    0.45885 X
     Occ.    5  a   ---  Virt.    9  a   -0.46433 X
     Occ.    5  a   ---  Virt.   12  a    0.08635 X
     Occ.    5  a   ---  Virt.   13  a   -0.14298 X
     Occ.    6  a   ---  Virt.    8  a   -0.46433 X
     Occ.    6  a   ---  Virt.    9  a   -0.45885 X
     Occ.    6  a   ---  Virt.   12  a   -0.14298 X
     Occ.    6  a   ---  Virt.   13  a   -0.08635 X
  ----------------------------------------------------------------------------
  Root  12 singlet a              0.347534985 a.u.                9.4569 eV 
  ----------------------------------------------------------------------------
     Transition Moments    X -0.14308   Y  0.00000   Z -0.00000
     Transition Moments   XX -1.39079  XY  0.00000  XZ -0.00000
     Transition Moments   YY -0.90096  YZ  0.00000  ZZ -0.90096
     Dipole Oscillator Strength                    0.0047430107
     Electric Quadrupole                           0.0000000179
     Magnetic Dipole                               0.0000000000
     Total Oscillator Strength                     0.0047430286

     Occ.    4  a   ---  Virt.    7  a   -0.24710 X
     Occ.    4  a   ---  Virt.   10  a    0.80601 X
     Occ.    4  a   ---  Virt.   11  a   -0.37310 X
     Occ.    4  a   ---  Virt.   14  a    0.25223 X
     Occ.    5  a   ---  Virt.    8  a   -0.14304 X
     Occ.    5  a   ---  Virt.    9  a    0.14474 X
     Occ.    6  a   ---  Virt.    8  a    0.14474 X
     Occ.    6  a   ---  Virt.    9  a    0.14304 X
  ----------------------------------------------------------------------------
  Root  13 singlet a              0.386652722 a.u.               10.5214 eV 
  ----------------------------------------------------------------------------
     Transition Moments    X  0.00000   Y -0.01185   Z -0.01256
     Transition Moments   XX -0.00000  XY -0.07720  XZ -0.08185
     Transition Moments   YY -0.00000  YZ -0.00000  ZZ -0.00000
     Dipole Oscillator Strength                    0.0000768646
     Electric Quadrupole                           0.0000000039
     Magnetic Dipole                               0.0000000189
     Total Oscillator Strength                     0.0000768874

     Occ.    6  a   ---  Virt.    7  a   -0.34394 X
     Occ.    6  a   ---  Virt.   10  a    0.28810 X
     Occ.    6  a   ---  Virt.   11  a    0.87592 X
     Occ.    6  a   ---  Virt.   14  a    0.16138 X
     Occ.    6  a   ---  Virt.   22  a   -0.05509 X
  ----------------------------------------------------------------------------
  Root  14 singlet a              0.386652722 a.u.               10.5214 eV 
  ----------------------------------------------------------------------------
     Transition Moments    X  0.00000   Y -0.01256   Z  0.01185
     Transition Moments   XX -0.00000  XY -0.08185  XZ  0.07720
     Transition Moments   YY -0.00000  YZ  0.00000  ZZ -0.00000
     Dipole Oscillator Strength                    0.0000768646
     Electric Quadrupole                           0.0000000039
     Magnetic Dipole                               0.0000000189
     Total Oscillator Strength                     0.0000768874

     Occ.    5  a   ---  Virt.    7  a   -0.34394 X
     Occ.    5  a   ---  Virt.   10  a    0.28810 X
     Occ.    5  a   ---  Virt.   11  a    0.87592 X
     Occ.    5  a   ---  Virt.   14  a    0.16138 X
     Occ.    5  a   ---  Virt.   22  a   -0.05509 X
  ----------------------------------------------------------------------------
  Root  15 singlet a              0.402028936 a.u.               10.9398 eV 
  ----------------------------------------------------------------------------
     Transition Moments    X -0.00000   Y  0.00000   Z  0.00000
     Transition Moments   XX  0.00000  XY -0.00000  XZ -0.00000
     Transition Moments   YY  0.00000  YZ  0.11136  ZZ -0.00000
     Dipole Oscillator Strength                    0.0000000000
     Electric Quadrupole                           0.0000000043
     Magnetic Dipole                               0.0000000000
     Total Oscillator Strength                     0.0000000043

     Occ.    5  a   ---  Virt.    8  a    0.23354 X
     Occ.    5  a   ---  Virt.    9  a   -0.24003 X
     Occ.    5  a   ---  Virt.   12  a   -0.31386 X
     Occ.    5  a   ---  Virt.   13  a    0.52895 X
     Occ.    5  a   ---  Virt.   15  a   -0.05448 X
     Occ.    5  a   ---  Virt.   20  a    0.06444 X
     Occ.    6  a   ---  Virt.    8  a    0.24003 X
     Occ.    6  a   ---  Virt.    9  a    0.23354 X
     Occ.    6  a   ---  Virt.   12  a   -0.52895 X
     Occ.    6  a   ---  Virt.   13  a   -0.31386 X
     Occ.    6  a   ---  Virt.   16  a   -0.05448 X
     Occ.    6  a   ---  Virt.   21  a   -0.06444 X
  ----------------------------------------------------------------------------
  Root  16 singlet a              0.402029733 a.u.               10.9398 eV 
  ----------------------------------------------------------------------------
     Transition Moments    X -0.00000   Y -0.00000   Z -0.00000
     Transition Moments   XX  0.00000  XY  0.00000  XZ -0.00000
     Transition Moments   YY -0.11137  YZ  0.00000  ZZ  0.11137
     Dipole Oscillator Strength                    0.0000000000
     Electric Quadrupole                           0.0000000043
     Magnetic Dipole                               0.0000000000
     Total Oscillator Strength                     0.0000000043

     Occ.    5  a   ---  Virt.    8  a   -0.24003 X
     Occ.    5  a   ---  Virt.    9  a   -0.23353 X
     Occ.    5  a   ---  Virt.   12  a    0.52895 X
     Occ.    5  a   ---  Virt.   13  a    0.31387 X
     Occ.    5  a   ---  Virt.   16  a    0.05447 X
     Occ.    5  a   ---  Virt.   21  a    0.06444 X
     Occ.    6  a   ---  Virt.    8  a    0.23353 X
     Occ.    6  a   ---  Virt.    9  a   -0.24003 X
     Occ.    6  a   ---  Virt.   12  a   -0.31387 X
     Occ.    6  a   ---  Virt.   13  a    0.52895 X
     Occ.    6  a   ---  Virt.   15  a   -0.05447 X
     Occ.    6  a   ---  Virt.   20  a    0.06444 X
  ----------------------------------------------------------------------------
  Root  17 singlet a              0.402748887 a.u.               10.9594 eV 
  ----------------------------------------------------------------------------
     Transition Moments    X  0.03136   Y  0.00000   Z  0.00000
     Transition Moments   XX -0.33887  XY -0.00000  XZ -0.00000
     Transition Moments   YY  0.44863  YZ  0.00000  ZZ  0.44863
     Dipole Oscillator Strength                    0.0002640238
     Electric Quadrupole                           0.0000000719
     Magnetic Dipole                               0.0000000000
     Total Oscillator Strength                     0.0002640957

     Occ.    4  a   ---  Virt.    7  a   -0.34519 X
     Occ.    4  a   ---  Virt.   10  a    0.28322 X
     Occ.    4  a   ---  Virt.   11  a    0.86930 X
     Occ.    4  a   ---  Virt.   14  a    0.13828 X
     Occ.    4  a   ---  Virt.   22  a   -0.05316 X
     Occ.    5  a   ---  Virt.   13  a    0.07279 X
     Occ.    6  a   ---  Virt.   12  a    0.07279 X
  ----------------------------------------------------------------------------
  Root  18 singlet a              0.402869291 a.u.               10.9626 eV 
  ----------------------------------------------------------------------------
     Transition Moments    X  0.00000   Y  0.00000   Z  0.00000
     Transition Moments   XX -0.00000  XY -0.00000  XZ -0.00000
     Transition Moments   YY  0.00000  YZ  0.00000  ZZ  0.00000
     Dipole Oscillator Strength                    0.0000000000
     Electric Quadrupole                           0.0000000000
     Magnetic Dipole                               0.0000000000
     Total Oscillator Strength                     0.0000000000

     Occ.    5  a   ---  Virt.    8  a   -0.24250 X
     Occ.    5  a   ---  Virt.    9  a   -0.23964 X
     Occ.    5  a   ---  Virt.   12  a    0.52370 X
     Occ.    5  a   ---  Virt.   13  a    0.31629 X
     Occ.    5  a   ---  Virt.   16  a    0.05446 X
     Occ.    5  a   ---  Virt.   21  a    0.06497 X
     Occ.    6  a   ---  Virt.    8  a   -0.23964 X
     Occ.    6  a   ---  Virt.    9  a    0.24250 X
     Occ.    6  a   ---  Virt.   12  a    0.31629 X
     Occ.    6  a   ---  Virt.   13  a   -0.52370 X
     Occ.    6  a   ---  Virt.   15  a    0.05446 X
     Occ.    6  a   ---  Virt.   20  a   -0.06497 X
  ----------------------------------------------------------------------------
  Root  19 singlet a              0.418346329 a.u.               11.3838 eV 
  ----------------------------------------------------------------------------
     Transition Moments    X  0.00000   Y -0.02050   Z -0.31821
     Transition Moments   XX -0.00000  XY  0.00557  XZ  0.08645
     Transition Moments   YY -0.00000  YZ -0.00000  ZZ -0.00000
     Dipole Oscillator Strength                    0.0283574213
     Electric Quadrupole                           0.0000000029
     Magnetic Dipole                               0.0000004276
     Total Oscillator Strength                     0.0283578518

     Occ.    4  a   ---  Virt.    8  a    0.48255 X
     Occ.    4  a   ---  Virt.   12  a   -0.84939 X
     Occ.    4  a   ---  Virt.   13  a    0.15600 X
     Occ.    4  a   ---  Virt.   15  a   -0.10697 X
     Occ.    4  a   ---  Virt.   20  a    0.05572 X
     Occ.    4  a   ---  Virt.   21  a   -0.06295 X
  ----------------------------------------------------------------------------
  Root  20 singlet a              0.418346329 a.u.               11.3838 eV 
  ----------------------------------------------------------------------------
     Transition Moments    X -0.00000   Y  0.31821   Z -0.02050
     Transition Moments   XX  0.00000  XY -0.08645  XZ  0.00557
     Transition Moments   YY -0.00000  YZ -0.00000  ZZ -0.00000
     Dipole Oscillator Strength                    0.0283574213
     Electric Quadrupole                           0.0000000029
     Magnetic Dipole                               0.0000004276
     Total Oscillator Strength                     0.0283578518

     Occ.    4  a   ---  Virt.    9  a   -0.48255 X
     Occ.    4  a   ---  Virt.   12  a    0.15600 X
     Occ.    4  a   ---  Virt.   13  a    0.84939 X
     Occ.    4  a   ---  Virt.   16  a    0.10697 X
     Occ.    4  a   ---  Virt.   20  a    0.06295 X
     Occ.    4  a   ---  Virt.   21  a    0.05572 X
  ----------------------------------------------------------------------------
  Root  21 singlet a              0.420120526 a.u.               11.4321 eV 
  ----------------------------------------------------------------------------
     Transition Moments    X  0.49767   Y  0.00000   Z  0.00000
     Transition Moments   XX -0.34805  XY -0.00000  XZ -0.00000
     Transition Moments   YY -0.35610  YZ  0.00000  ZZ -0.35610
     Dipole Oscillator Strength                    0.0693697112
     Electric Quadrupole                           0.0000000000
     Magnetic Dipole                               0.0000000000
     Total Oscillator Strength                     0.0693697112

     Occ.    4  a   ---  Virt.   10  a   -0.06606 X
     Occ.    4  a   ---  Virt.   11  a   -0.15204 X
     Occ.    4  a   ---  Virt.   14  a    0.17395 X
     Occ.    4  a   ---  Virt.   17  a    0.06281 X
     Occ.    5  a   ---  Virt.    8  a    0.11676 X
     Occ.    5  a   ---  Virt.    9  a   -0.11816 X
     Occ.    5  a   ---  Virt.   12  a   -0.34163 X
     Occ.    5  a   ---  Virt.   13  a    0.56566 X
     Occ.    6  a   ---  Virt.    8  a   -0.11816 X
     Occ.    6  a   ---  Virt.    9  a   -0.11676 X
     Occ.    6  a   ---  Virt.   12  a    0.56566 X
     Occ.    6  a   ---  Virt.   13  a    0.34163 X
  ----------------------------------------------------------------------------
  Root  22 singlet a              0.456183399 a.u.               12.4134 eV 
  ----------------------------------------------------------------------------
     Transition Moments    X  0.00000   Y  0.29385   Z  0.31215
     Transition Moments   XX -0.00000  XY -0.00177  XZ -0.00188
     Transition Moments   YY  0.00000  YZ -0.00000  ZZ -0.00000
     Dipole Oscillator Strength                    0.0558929241
     Electric Quadrupole                           0.0000000000
     Magnetic Dipole                               0.0000000031
     Total Oscillator Strength                     0.0558929272

     Occ.    6  a   ---  Virt.    7  a    0.05960 X
     Occ.    6  a   ---  Virt.   10  a    0.31015 X
     Occ.    6  a   ---  Virt.   11  a    0.09390 X
     Occ.    6  a   ---  Virt.   14  a   -0.93876 X
     Occ.    6  a   ---  Virt.   17  a   -0.05129 X
     Occ.    6  a   ---  Virt.   23  a    0.07026 X
  ----------------------------------------------------------------------------
  Root  23 singlet a              0.456183399 a.u.               12.4134 eV 
  ----------------------------------------------------------------------------
     Transition Moments    X -0.00000   Y -0.31215   Z  0.29385
     Transition Moments   XX -0.00000  XY  0.00188  XZ -0.00177
     Transition Moments   YY -0.00000  YZ  0.00000  ZZ -0.00000
     Dipole Oscillator Strength                    0.0558929241
     Electric Quadrupole                           0.0000000000
     Magnetic Dipole                               0.0000000031
     Total Oscillator Strength                     0.0558929272

     Occ.    5  a   ---  Virt.    7  a   -0.05960 X
     Occ.    5  a   ---  Virt.   10  a   -0.31015 X
     Occ.    5  a   ---  Virt.   11  a   -0.09390 X
     Occ.    5  a   ---  Virt.   14  a    0.93876 X
     Occ.    5  a   ---  Virt.   17  a    0.05129 X
     Occ.    5  a   ---  Virt.   23  a   -0.07026 X
  ----------------------------------------------------------------------------
  Root  24 singlet a              0.479738404 a.u.               13.0544 eV 
  ----------------------------------------------------------------------------
     Transition Moments    X  0.34073   Y  0.00000   Z  0.00000
     Transition Moments   XX -0.46453  XY -0.00000  XZ  0.00000
     Transition Moments   YY -0.75891  YZ  0.00000  ZZ -0.75891
     Dipole Oscillator Strength                    0.0371301909
     Electric Quadrupole                           0.0000000170
     Magnetic Dipole                               0.0000000000
     Total Oscillator Strength                     0.0371302079

     Occ.    4  a   ---  Virt.    7  a    0.05603 X
     Occ.    4  a   ---  Virt.   10  a    0.31135 X
     Occ.    4  a   ---  Virt.   14  a   -0.92155 X
     Occ.    5  a   ---  Virt.   12  a   -0.07647 X
     Occ.    5  a   ---  Virt.   13  a    0.12662 X
     Occ.    6  a   ---  Virt.   12  a    0.12662 X
     Occ.    6  a   ---  Virt.   13  a    0.07647 X

              Target root =      1
          Target symmetry = none
      Ground state energy =   -107.390234087582
        Excitation energy =      0.251583319703
     Excited state energy =   -107.138650767879

  stored tddft:energy   -107.13865076787884     

 Task  times  cpu:       11.7s     wall:       11.7s
 Summary of allocated global arrays
-----------------------------------
  No active global arrays


MA_summarize_allocated_blocks: starting scan ...
MA_summarize_allocated_blocks: scan completed: 0 heap blocks, 0 stack blocks
MA usage statistics:

	allocation statistics:
					      heap	     stack
					      ----	     -----
	current number of blocks	         0	         0
	maximum number of blocks	        17	        60
	current total bytes		         0	         0
	maximum total bytes		   3052448	  22511272
	maximum total K-bytes		      3053	     22512
	maximum total M-bytes		         4	        23


                                NWChem Input Module
                                -------------------




                                     CITATION
                                     --------
                Please cite the following reference when publishing
                           results obtained with NWChem:

          E. Apra, E. J. Bylaska, W. A. de Jong, N. Govind, K. Kowalski,
       T. P. Straatsma, M. Valiev, H. J. J. van Dam, Y. Alexeev, J. Anchell,
       V. Anisimov, F. W. Aquino, R. Atta-Fynn, J. Autschbach, N. P. Bauman,
     J. C. Becca, D. E. Bernholdt, K. Bhaskaran-Nair, S. Bogatko, P. Borowski,
         J. Boschen, J. Brabec, A. Bruner, E. Cauet, Y. Chen, G. N. Chuev,
      C. J. Cramer, J. Daily, M. J. O. Deegan, T. H. Dunning Jr., M. Dupuis,
   K. G. Dyall, G. I. Fann, S. A. Fischer, A. Fonari, H. Fruchtl, L. Gagliardi,
      J. Garza, N. Gawande, S. Ghosh, K. Glaesemann, A. W. Gotz, J. Hammond,
       V. Helms, E. D. Hermes, K. Hirao, S. Hirata, M. Jacquelin, L. Jensen,
   B. G. Johnson, H. Jonsson, R. A. Kendall, M. Klemm, R. Kobayashi, V. Konkov,
      S. Krishnamoorthy, M. Krishnan, Z. Lin, R. D. Lins, R. J. Littlefield,
      A. J. Logsdail, K. Lopata, W. Ma, A. V. Marenich, J. Martin del Campo,
   D. Mejia-Rodriguez, J. E. Moore, J. M. Mullin, T. Nakajima, D. R. Nascimento,
    J. A. Nichols, P. J. Nichols, J. Nieplocha, A. Otero-de-la-Roza, B. Palmer,
    A. Panyala, T. Pirojsirikul, B. Peng, R. Peverati, J. Pittner, L. Pollack,
   R. M. Richard, P. Sadayappan, G. C. Schatz, W. A. Shelton, D. W. Silverstein,
   D. M. A. Smith, T. A. Soares, D. Song, M. Swart, H. L. Taylor, G. S. Thomas,
            V. Tipparaju, D. G. Truhlar, K. Tsemekhman, T. Van Voorhis,
      A. Vazquez-Mayagoitia, P. Verma, O. Villa, A. Vishnu, K. D. Vogiatzis,
        D. Wang, J. H. Weare, M. J. Williamson, T. L. Windus, K. Wolinski,
        A. T. Wong, Q. Wu, C. Yang, Q. Yu, M. Zacharias, Z. Zhang, Y. Zhao,
                                and R. J. Harrison
                        "NWChem: Past, present, and future
                         J. Chem. Phys. 152, 184102 (2020)
                               doi:10.1063/5.0004997

                                      AUTHORS
                                      -------
  E. Apra, E. J. Bylaska, N. Govind, K. Kowalski, M. Valiev, D. Mejia-Rodriguez,
       A. Kunitsa, N. P. Bauman, A. Panyala, W. A. de Jong, T. P. Straatsma,
   H. J. J. van Dam, D. Wang, T. L. Windus, J. Hammond, J. Autschbach, A. Woods,
    K. Bhaskaran-Nair, J. Brabec, K. Lopata, S. A. Fischer, S. Krishnamoorthy,
     M. Jacquelin, W. Ma, M. Klemm, O. Villa, Y. Chen, V. Anisimov, F. Aquino,
     S. Hirata, M. T. Hackler, E. Hermes, L. Jensen, J. E. Moore, J. C. Becca,
      V. Konjkov, T. Risthaus, M. Malagoli, A. Marenich, A. Otero-de-la-Roza,
        J. Mullin, P. Nichols, R. Peverati, J. Pittner, Y. Zhao, P.-D. Fan,
        A. Fonari, M. J. Williamson, R. J. Harrison, J. R. Rehr, M. Dupuis,
     D. Silverstein, D. M. A. Smith, J. Nieplocha, V. Tipparaju, M. Krishnan,
     B. E. Van Kuiken, A. Vazquez-Mayagoitia, M. Swart, Q. Wu, T. Van Voorhis,
     A. A. Auer, M. Nooijen, L. D. Crosby, E. Brown, G. Cisneros, G. I. Fann,
   H. Fruchtl, J. Garza, K. Hirao, R. A. Kendall, J. A. Nichols, K. Tsemekhman,
    K. Wolinski, J. Anchell, D. E. Bernholdt, P. Borowski, T. Clark, D. Clerc,
   H. Dachsel, M. J. O. Deegan, K. Dyall, D. Elwood, E. Glendening, M. Gutowski,
   A. C. Hess, J. Jaffe, B. G. Johnson, J. Ju, R. Kobayashi, R. Kutteh, Z. Lin,
   R. Littlefield, X. Long, B. Meng, T. Nakajima, S. Niu, L. Pollack, M. Rosing,
   K. Glaesemann, G. Sandrone, M. Stave, H. Taylor, G. Thomas, J. H. van Lenthe,
                               A. T. Wong, Z. Zhang.

 Total times  cpu:       11.7s     wall:       11.7s
