    28
 geometry
 S                     1.59930270    -1.52060717     0.00000000
 S                    -1.59930270     1.52060717     0.00000000
 O                    -2.25030176    -1.20259343     0.00000000
 O                     2.25030176     1.20259343     0.00000000
 C                     0.07111049    -0.67210394     0.00000000
 C                    -0.07111049     0.67210394     0.00000000
 C                    -0.63299238    -2.98234385     0.00000000
 C                     0.63299238     2.98234385     0.00000000
 C                     0.75811783    -3.08048224     0.00000000
 C                    -0.75811783     3.08048224     0.00000000
 C                    -1.10126795    -1.59537286     0.00000000
 C                     1.10126795     1.59537286     0.00000000
 C                    -1.43062750    -4.12202267     0.00000000
 C                     1.43062750     4.12202267     0.00000000
 C                     1.37689099    -4.32369362     0.00000000
 C                    -1.37689099     4.32369362     0.00000000
 C                    -0.82057169    -5.36650399     0.00000000
 C                     0.82057169     5.36650399     0.00000000
 C                     0.57359492    -5.45902573     0.00000000
 C                    -0.57359492     5.45902573     0.00000000
 H                    -2.51048865    -4.01094576     0.00000000
 H                     2.51048865     4.01094576     0.00000000
 H                     2.45863993    -4.41144737     0.00000000
 H                    -2.45863993     4.41144737     0.00000000
 H                    -1.42135023    -6.26983758     0.00000000
 H                     1.42135023     6.26983758     0.00000000
 H                     1.04407193    -6.43767435     0.00000000
 H                    -1.04407193     6.43767435     0.00000000
