    28
 geometry
 S                     1.58478520    -1.50459276     0.00000000
 S                    -1.58478520     1.50459276     0.00000000
 O                    -2.26626981    -1.26829943     0.00000000
 O                     2.26626981     1.26829943     0.00000000
 C                     0.06961383    -0.66346758     0.00000000
 C                    -0.06961383     0.66346758     0.00000000
 C                    -0.62290089    -2.98318444     0.00000000
 C                     0.62290089     2.98318444     0.00000000
 C                     0.76745940    -3.07824139     0.00000000
 C                    -0.76745940     3.07824139     0.00000000
 C                    -1.09273460    -1.59197470     0.00000000
 C                     1.09273460     1.59197470     0.00000000
 C                    -1.43643540    -4.10671688     0.00000000
 C                     1.43643540     4.10671688     0.00000000
 C                     1.37890474    -4.32384395     0.00000000
 C                    -1.37890474     4.32384395     0.00000000
 C                    -0.82324449    -5.35977031     0.00000000
 C                     0.82324449     5.35977031     0.00000000
 C                     0.57520889    -5.46790499     0.00000000
 C                    -0.57520889     5.46790499     0.00000000
 H                    -2.51807656    -4.02611318     0.00000000
 H                     2.51807656     4.02611318     0.00000000
 H                     2.46011692    -4.42184244     0.00000000
 H                    -2.46011692     4.42184244     0.00000000
 H                    -1.43219247    -6.25954940     0.00000000
 H                     1.43219247     6.25954940     0.00000000
 H                     1.03771643    -6.45125853     0.00000000
 H                    -1.03771643     6.45125853     0.00000000
