    28
 geometry
 S                     1.60005382    -1.52250530     0.00000000
 S                    -1.60005382     1.52250530     0.00000000
 O                    -2.25019134    -1.20699037     0.00000000
 O                     2.25019134     1.20699037     0.00000000
 C                     0.07073682    -0.67214014     0.00000000
 C                    -0.07073682     0.67214014     0.00000000
 C                    -0.63108653    -2.98462534     0.00000000
 C                     0.63108653     2.98462534     0.00000000
 C                     0.75988556    -3.08315448     0.00000000
 C                    -0.75988556     3.08315448     0.00000000
 C                    -1.10062590    -1.59761488     0.00000000
 C                     1.10062590     1.59761488     0.00000000
 C                    -1.42987699    -4.12341857     0.00000000
 C                     1.42987699     4.12341857     0.00000000
 C                     1.37736349    -4.32701856     0.00000000
 C                    -1.37736349     4.32701856     0.00000000
 C                    -0.82062386    -5.36841136     0.00000000
 C                     0.82062386     5.36841136     0.00000000
 C                     0.57337514    -5.46212424     0.00000000
 C                    -0.57337514     5.46212424     0.00000000
 H                    -2.50964710    -4.00986790     0.00000000
 H                     2.50964710     4.00986790     0.00000000
 H                     2.45886300    -4.41755144     0.00000000
 H                    -2.45886300     4.41755144     0.00000000
 H                    -1.42199152    -6.27168629     0.00000000
 H                     1.42199152     6.27168629     0.00000000
 H                     1.04334323    -6.44087110     0.00000000
 H                    -1.04334323     6.44087110     0.00000000
