    28
 geometry
 S                     1.59814876    -1.52120731     0.00000000
 S                    -1.59814876     1.52120731     0.00000000
 O                    -2.25337109    -1.21712151     0.00000000
 O                     2.25337109     1.21712151     0.00000000
 C                     0.07061795    -0.67408806     0.00000000
 C                    -0.07061795     0.67408806     0.00000000
 C                    -0.63037781    -2.98581699     0.00000000
 C                     0.63037781     2.98581699     0.00000000
 C                     0.76061031    -3.08386962     0.00000000
 C                    -0.76061031     3.08386962     0.00000000
 C                    -1.10142617    -1.60256974     0.00000000
 C                     1.10142617     1.60256974     0.00000000
 C                    -1.42860823    -4.12515153     0.00000000
 C                     1.42860823     4.12515153     0.00000000
 C                     1.37771221    -4.32862918     0.00000000
 C                    -1.37771221     4.32862918     0.00000000
 C                    -0.82101266    -5.36847087     0.00000000
 C                     0.82101266     5.36847087     0.00000000
 C                     0.57296128    -5.46342955     0.00000000
 C                    -0.57296128     5.46342955     0.00000000
 H                    -2.50832809    -4.00985732     0.00000000
 H                     2.50832809     4.00985732     0.00000000
 H                     2.46030221    -4.42006795     0.00000000
 H                    -2.46030221     4.42006795     0.00000000
 H                    -1.42384843    -6.27126467     0.00000000
 H                     1.42384843     6.27126467     0.00000000
 H                     1.04030679    -6.44300586     0.00000000
 H                    -1.04030679     6.44300586     0.00000000
