    28
 geometry
 S                     1.58808943    -1.51498907     0.00000000
 S                    -1.58808943     1.51498907     0.00000000
 O                    -2.25545764    -1.22988156     0.00000000
 O                     2.25545764     1.22988156     0.00000000
 C                     0.06282882    -0.67244759     0.00000000
 C                    -0.06282882     0.67244759     0.00000000
 C                    -0.62606415    -2.98508921     0.00000000
 C                     0.62606415     2.98508921     0.00000000
 C                     0.76281355    -3.08548405     0.00000000
 C                    -0.76281355     3.08548405     0.00000000
 C                    -1.10281521    -1.60586402     0.00000000
 C                     1.10281521     1.60586402     0.00000000
 C                    -1.42907600    -4.12025517     0.00000000
 C                     1.42907600     4.12025517     0.00000000
 C                     1.38445554    -4.32815024     0.00000000
 C                    -1.38445554     4.32815024     0.00000000
 C                    -0.82278356    -5.36805379     0.00000000
 C                     0.82278356     5.36805379     0.00000000
 C                     0.57146296    -5.46088991     0.00000000
 C                    -0.57146296     5.46088991     0.00000000
 H                    -2.51099513    -4.01524722     0.00000000
 H                     2.51099513     4.01524722     0.00000000
 H                     2.46477856    -4.42065819     0.00000000
 H                    -2.46477856     4.42065819     0.00000000
 H                    -1.43124433    -6.26627573     0.00000000
 H                     1.43124433     6.26627573     0.00000000
 H                     1.03922699    -6.44316441     0.00000000
 H                    -1.03922699     6.44316441     0.00000000
