    28
 geometry
 S                     1.60044255    -1.52309512     0.00000000
 S                    -1.60044255     1.52309512     0.00000000
 O                    -2.25072753    -1.21041729     0.00000000
 O                     2.25072753     1.21041729     0.00000000
 C                     0.07158860    -0.67249298     0.00000000
 C                    -0.07158860     0.67249298     0.00000000
 C                    -0.63049052    -2.98561011     0.00000000
 C                     0.63049052     2.98561011     0.00000000
 C                     0.76014677    -3.08363960     0.00000000
 C                    -0.76014677     3.08363960     0.00000000
 C                    -1.10066252    -1.59916204     0.00000000
 C                     1.10066252     1.59916204     0.00000000
 C                    -1.42967649    -4.12383855     0.00000000
 C                     1.42967649     4.12383855     0.00000000
 C                     1.37768653    -4.32822222     0.00000000
 C                    -1.37768653     4.32822222     0.00000000
 C                    -0.82151158    -5.36949373     0.00000000
 C                     0.82151158     5.36949373     0.00000000
 C                     0.57265106    -5.46191155     0.00000000
 C                    -0.57265106     5.46191155     0.00000000
 H                    -2.50856167    -4.00967947     0.00000000
 H                     2.50856167     4.00967947     0.00000000
 H                     2.45891514    -4.41871474     0.00000000
 H                    -2.45891514     4.41871474     0.00000000
 H                    -1.42199550    -6.27232672     0.00000000
 H                     1.42199550     6.27232672     0.00000000
 H                     1.04224179    -6.44109987     0.00000000
 H                    -1.04224179     6.44109987     0.00000000
