    28
 geometry
 S                     1.59990103    -1.52107663     0.00000000
 S                    -1.59990103     1.52107663     0.00000000
 O                    -2.24994553    -1.20341226     0.00000000
 O                     2.24994553     1.20341226     0.00000000
 C                     0.07128838    -0.67233375     0.00000000
 C                    -0.07128838     0.67233375     0.00000000
 C                    -0.63213282    -2.98292483     0.00000000
 C                     0.63213282     2.98292483     0.00000000
 C                     0.75912508    -3.08155243     0.00000000
 C                    -0.75912508     3.08155243     0.00000000
 C                    -1.10066594    -1.59569842     0.00000000
 C                     1.10066594     1.59569842     0.00000000
 C                    -1.43008855    -4.12236342     0.00000000
 C                     1.43008855     4.12236342     0.00000000
 C                     1.37734242    -4.32519995     0.00000000
 C                    -1.37734242     4.32519995     0.00000000
 C                    -0.82065737    -5.36736757     0.00000000
 C                     0.82065737     5.36736757     0.00000000
 C                     0.57343898    -5.46034226     0.00000000
 C                    -0.57343898     5.46034226     0.00000000
 H                    -2.50999020    -4.01080502     0.00000000
 H                     2.50999020     4.01080502     0.00000000
 H                     2.45910852    -4.41439544     0.00000000
 H                    -2.45910852     4.41439544     0.00000000
 H                    -1.42222797    -6.27025260     0.00000000
 H                     1.42222797     6.27025260     0.00000000
 H                     1.04401823    -6.43911981     0.00000000
 H                    -1.04401823     6.43911981     0.00000000
