    28
 geometry
 S                     1.59968190    -1.52072117     0.00000000
 S                    -1.59968190     1.52072117     0.00000000
 O                    -2.24988145    -1.20272867     0.00000000
 O                     2.24988145     1.20272867     0.00000000
 C                     0.07133851    -0.67224587     0.00000000
 C                    -0.07133851     0.67224587     0.00000000
 C                    -0.63250488    -2.98258814     0.00000000
 C                     0.63250488     2.98258814     0.00000000
 C                     0.75872970    -3.08103446     0.00000000
 C                    -0.75872970     3.08103446     0.00000000
 C                    -1.10078046    -1.59543175     0.00000000
 C                     1.10078046     1.59543175     0.00000000
 C                    -1.43026639    -4.12216511     0.00000000
 C                     1.43026639     4.12216511     0.00000000
 C                     1.37719723    -4.32456279     0.00000000
 C                    -1.37719723     4.32456279     0.00000000
 C                    -0.82064927    -5.36697711     0.00000000
 C                     0.82064927     5.36697711     0.00000000
 C                     0.57350551    -5.45977935     0.00000000
 C                    -0.57350551     5.45977935     0.00000000
 H                    -2.51013216    -4.01098241     0.00000000
 H                     2.51013216     4.01098241     0.00000000
 H                     2.45894679    -4.41325156     0.00000000
 H                    -2.45894679     4.41325156     0.00000000
 H                    -1.42194900    -6.26998406     0.00000000
 H                     1.42194900     6.26998406     0.00000000
 H                     1.04404863    -6.43851657     0.00000000
 H                    -1.04404863     6.43851657     0.00000000
