    28
 geometry
 S                     1.59945604    -1.52056171     0.00000000
 S                    -1.59945604     1.52056171     0.00000000
 O                    -2.25004508    -1.20249463     0.00000000
 O                     2.25004508     1.20249463     0.00000000
 C                     0.07126299    -0.67215357     0.00000000
 C                    -0.07126299     0.67215357     0.00000000
 C                    -0.63280307    -2.98240799     0.00000000
 C                     0.63280307     2.98240799     0.00000000
 C                     0.75835043    -3.08063409     0.00000000
 C                    -0.75835043     3.08063409     0.00000000
 C                    -1.10103892    -1.59536446     0.00000000
 C                     1.10103892     1.59536446     0.00000000
 C                    -1.43049597    -4.12205771     0.00000000
 C                     1.43049597     4.12205771     0.00000000
 C                     1.37700993    -4.32399586     0.00000000
 C                    -1.37700993     4.32399586     0.00000000
 C                    -0.82059710    -5.36663774     0.00000000
 C                     0.82059710     5.36663774     0.00000000
 C                     0.57356923    -5.45926958     0.00000000
 C                    -0.57356923     5.45926958     0.00000000
 H                    -2.51033470    -4.01100835     0.00000000
 H                     2.51033470     4.01100835     0.00000000
 H                     2.45874489    -4.41213226     0.00000000
 H                    -2.45874489     4.41213226     0.00000000
 H                    -1.42158235    -6.26983008     0.00000000
 H                     1.42158235     6.26983008     0.00000000
 H                     1.04403657    -6.43795946     0.00000000
 H                    -1.04403657     6.43795946     0.00000000
