    28
 geometry
 S                     1.60005995    -1.52203536     0.00000000
 S                    -1.60005995     1.52203536     0.00000000
 O                    -2.25017613    -1.20564854     0.00000000
 O                     2.25017613     1.20564854     0.00000000
 C                     0.07099160    -0.67222540     0.00000000
 C                    -0.07099160     0.67222540     0.00000000
 C                    -0.63155866    -2.98385559     0.00000000
 C                     0.63155866     2.98385559     0.00000000
 C                     0.75957835    -3.08264079     0.00000000
 C                    -0.75957835     3.08264079     0.00000000
 C                    -1.10059876    -1.59667587     0.00000000
 C                     1.10059876     1.59667587     0.00000000
 C                    -1.42978385    -4.12305551     0.00000000
 C                     1.42978385     4.12305551     0.00000000
 C                     1.37744486    -4.32634801     0.00000000
 C                    -1.37744486     4.32634801     0.00000000
 C                    -0.82066195    -5.36813935     0.00000000
 C                     0.82066195     5.36813935     0.00000000
 C                     0.57336264    -5.46143894     0.00000000
 C                    -0.57336264     5.46143894     0.00000000
 H                    -2.50977287    -4.01020482     0.00000000
 H                     2.50977287     4.01020482     0.00000000
 H                     2.45905970    -4.41649103     0.00000000
 H                    -2.45905970     4.41649103     0.00000000
 H                    -1.42220838    -6.27121920     0.00000000
 H                     1.42220838     6.27121920     0.00000000
 H                     1.04365705    -6.44023445     0.00000000
 H                    -1.04365705     6.44023445     0.00000000
