16
CACTUS 3D  https://cactus.nci.nih.gov/chemical/structure/CCC%28%3DO%29CC/sdf?get3d=true
C      2.46800000    -0.19050000     0.00000000
C      1.30510000     0.80370000    -0.00000000
C      0.00000000     0.05020000    -0.00000000
O     -0.00000000    -1.15740000     0.00000000
C     -1.30510000     0.80370000    -0.00000000
C     -2.46800000    -0.19050000     0.00000000
H      2.41030000    -0.81720000     0.89000000
H      2.41030000    -0.81720000    -0.89000000
H      3.41200000     0.35450000     0.00000000
H      1.36280000     1.43040000     0.89000000
H      1.36280000     1.43040000    -0.89000000
H     -1.36280000     1.43040000     0.89000000
H     -1.36280000     1.43040000    -0.89000000
H     -2.41030000    -0.81720000    -0.89000000
H     -2.41030000    -0.81720000     0.89000000
H     -3.41200000     0.35450000     0.00000000
