 argument  1 = tddft.nw



============================== echo of input deck ==============================
echo
start pentan3one_td
title "3-pentanone LR-TDDFT, LC-wPBE mu=0.342545, 6-311G* Cartesian, PBE0 geometry"
scratch_dir /Users/bldrdge1/Downloads/repos/PlasMol/jobs/final/Step_1/pentan3one
permanent_dir /Users/bldrdge1/Downloads/repos/PlasMol/jobs/final/Step_1/pentan3one
memory total 2500 mb
charge 0

geometry units angstroms noautosym noautoz
  C      2.53438092    -0.16595889    -0.00000782
  C      1.28731392     0.69720783     0.00001356
  C      0.00000013    -0.10277383     0.00000818
  O     -0.00000107    -1.30971517     0.00001346
  C     -1.28731380     0.69720821    -0.00001633
  C     -2.53438062    -0.16595910     0.00000585
  H      2.56121753    -0.81510720     0.87743686
  H      2.56121844    -0.81505887    -0.87748932
  H      3.43736308     0.44951229     0.00000729
  H      1.26739116     1.36786947     0.86932578
  H      1.26738417     1.36791302    -0.86926289
  H     -1.26738892     1.36791442     0.86926103
  H     -1.26738661     1.36786867    -0.86932778
  H     -2.56121946    -0.81510052    -0.87744458
  H     -2.56121584    -0.81506545     0.87748197
  H     -3.43736303     0.44951178    -0.00000525
end

basis cartesian
  * library 6-311G*
end

dft
  xc xwpbe 1.00 cpbe96 1.0 hfexch 1.00
  cam 0.342545 cam_alpha 0.00 cam_beta 1.00
  mult 1
  grid fine
  iterations 100
  convergence energy 1.0e-7
end

tddft
  nroots 30
  notriplet
end

task tddft energy
================================================================================


                                         
                                         


             Northwest Computational Chemistry Package (NWChem) 7.2.3
             --------------------------------------------------------


                    Environmental Molecular Sciences Laboratory
                       Pacific Northwest National Laboratory
                                Richland, WA 99352

                              Copyright (c) 1994-2022
                       Pacific Northwest National Laboratory
                            Battelle Memorial Institute

             NWChem is an open-source computational chemistry package
                        distributed under the terms of the
                      Educational Community License (ECL) 2.0
             A copy of the license is included with this distribution
                              in the LICENSE.TXT file

                                  ACKNOWLEDGMENT
                                  --------------

            This software and its documentation were developed at the
            EMSL at Pacific Northwest National Laboratory, a multiprogram
            national laboratory, operated for the U.S. Department of Energy
            by Battelle under Contract Number DE-AC05-76RL01830. Support
            for this work was provided by the Department of Energy Office
            of Biological and Environmental Research, Office of Basic
            Energy Sciences, and the Office of Advanced Scientific Computing.


           Job information
           ---------------

    hostname        = CAS-X1HWX6T0HY
    program         = /opt/homebrew/bin/nwchem
    date            = Thu Sep 24 12:01:18 2026

    compiled        = Thu_Dec_26_16:10:57_2024
    source          = /private/tmp/nwchem-20241226-24138-dbs3bh/nwchem-7.2.3
    nwchem branch   = 7.2.3
    nwchem revision = d690e065
    ga revision     = 5.8.0
    use scalapack   = T
    input           = tddft.nw
    prefix          = pentan3one_td.
    data base       = /Users/bldrdge1/Downloads/repos/PlasMol/jobs/final/Step_1/pentan3one/pentan3one_td.db
    status          = startup
    nproc           =        1
    time left       =     -1s



           Memory information
           ------------------

    heap     =   81919996 doubles =    625.0 Mbytes
    stack    =   81920001 doubles =    625.0 Mbytes
    global   =  163840000 doubles =   1250.0 Mbytes (distinct from heap & stack)
    total    =  327679997 doubles =   2500.0 Mbytes
    verify   = yes
    hardfail = no 


           Directory information
           ---------------------

  0 permanent = /Users/bldrdge1/Downloads/repos/PlasMol/jobs/final/Step_1/pentan3one
  0 scratch   = /Users/bldrdge1/Downloads/repos/PlasMol/jobs/final/Step_1/pentan3one




                                NWChem Input Module
                                -------------------


    3-pentanone LR-TDDFT, LC-wPBE mu=0.342545, 6-311G* Cartesian, PBE0 geometry
    ---------------------------------------------------------------------------

 Scaling coordinates for geometry "geometry" by  1.889725989
 (inverse scale =  0.529177249)



                             Geometry "geometry" -> ""
                             -------------------------

 Output coordinates in angstroms (scale by  1.889725989 to convert to a.u.)

  No.       Tag          Charge          X              Y              Z
 ---- ---------------- ---------- -------------- -------------- --------------
    1 C                    6.0000     2.53438102    -0.13243559    -0.00001014
    2 C                    6.0000     1.28731402     0.73073113     0.00001124
    3 C                    6.0000     0.00000023    -0.06925053     0.00000586
    4 O                    8.0000    -0.00000097    -1.27619187     0.00001114
    5 C                    6.0000    -1.28731370     0.73073151    -0.00001865
    6 C                    6.0000    -2.53438052    -0.13243580     0.00000353
    7 H                    1.0000     2.56121763    -0.78158390     0.87743454
    8 H                    1.0000     2.56121854    -0.78153557    -0.87749164
    9 H                    1.0000     3.43736318     0.48303559     0.00000497
   10 H                    1.0000     1.26739126     1.40139277     0.86932346
   11 H                    1.0000     1.26738427     1.40143632    -0.86926521
   12 H                    1.0000    -1.26738882     1.40143772     0.86925871
   13 H                    1.0000    -1.26738651     1.40139197    -0.86933010
   14 H                    1.0000    -2.56121936    -0.78157722    -0.87744690
   15 H                    1.0000    -2.56121574    -0.78154215     0.87747965
   16 H                    1.0000    -3.43736293     0.48303508    -0.00000757

      Atomic Mass 
      ----------- 

      C                 12.000000
      O                 15.994910
      H                  1.007825


 Effective nuclear repulsion energy (a.u.)     239.7728450375

            Nuclear Dipole moment (a.u.) 
            ----------------------------
        X                 Y               Z
 ---------------- ---------------- ----------------
     0.0000000000    -0.0000000000     0.0000000000


            XYZ format geometry
            -------------------
    16
 geometry
 C                     2.53438102    -0.13243559    -0.00001014
 C                     1.28731402     0.73073113     0.00001124
 C                     0.00000023    -0.06925053     0.00000586
 O                    -0.00000097    -1.27619187     0.00001114
 C                    -1.28731370     0.73073151    -0.00001865
 C                    -2.53438052    -0.13243580     0.00000353
 H                     2.56121763    -0.78158390     0.87743454
 H                     2.56121854    -0.78153557    -0.87749164
 H                     3.43736318     0.48303559     0.00000497
 H                     1.26739126     1.40139277     0.86932346
 H                     1.26738427     1.40143632    -0.86926521
 H                    -1.26738882     1.40143772     0.86925871
 H                    -1.26738651     1.40139197    -0.86933010
 H                    -2.56121936    -0.78157722    -0.87744690
 H                    -2.56121574    -0.78154215     0.87747965
 H                    -3.43736293     0.48303508    -0.00000757

 ==============================================================================
                                internuclear distances
 ------------------------------------------------------------------------------
       center one      |      center two      | atomic units |  angstroms
 ------------------------------------------------------------------------------
    2 C                |   1 C                |     2.86606  |     1.51665
    3 C                |   2 C                |     2.86413  |     1.51563
    4 O                |   3 C                |     2.28079  |     1.20694
    5 C                |   3 C                |     2.86413  |     1.51563
    6 C                |   5 C                |     2.86606  |     1.51665
    7 H                |   1 C                |     2.06320  |     1.09180
    8 H                |   1 C                |     2.06320  |     1.09180
    9 H                |   1 C                |     2.06507  |     1.09279
   10 H                |   2 C                |     2.07516  |     1.09813
   11 H                |   2 C                |     2.07516  |     1.09813
   12 H                |   5 C                |     2.07516  |     1.09813
   13 H                |   5 C                |     2.07516  |     1.09813
   14 H                |   6 C                |     2.06320  |     1.09180
   15 H                |   6 C                |     2.06320  |     1.09180
   16 H                |   6 C                |     2.06507  |     1.09279
 ------------------------------------------------------------------------------
                         number of included internuclear distances:         15
 ==============================================================================



 ==============================================================================
                                 internuclear angles
 ------------------------------------------------------------------------------
        center 1       |       center 2       |       center 3       |  degrees
 ------------------------------------------------------------------------------
    2 C                |   1 C                |   7 H                |   111.01
    2 C                |   1 C                |   8 H                |   111.01
    2 C                |   1 C                |   9 H                |   111.03
    7 H                |   1 C                |   8 H                |   106.97
    7 H                |   1 C                |   9 H                |   108.33
    8 H                |   1 C                |   9 H                |   108.33
    1 C                |   2 C                |   3 C                |   113.45
    1 C                |   2 C                |  10 H                |   111.25
    1 C                |   2 C                |  11 H                |   111.25
    3 C                |   2 C                |  10 H                |   107.88
    3 C                |   2 C                |  11 H                |   107.88
   10 H                |   2 C                |  11 H                |   104.67
    2 C                |   3 C                |   4 O                |   121.86
    2 C                |   3 C                |   5 C                |   116.28
    4 O                |   3 C                |   5 C                |   121.86
    3 C                |   5 C                |   6 C                |   113.45
    3 C                |   5 C                |  12 H                |   107.88
    3 C                |   5 C                |  13 H                |   107.88
    6 C                |   5 C                |  12 H                |   111.25
    6 C                |   5 C                |  13 H                |   111.25
   12 H                |   5 C                |  13 H                |   104.67
    5 C                |   6 C                |  14 H                |   111.01
    5 C                |   6 C                |  15 H                |   111.01
    5 C                |   6 C                |  16 H                |   111.03
   14 H                |   6 C                |  15 H                |   106.97
   14 H                |   6 C                |  16 H                |   108.33
   15 H                |   6 C                |  16 H                |   108.33
 ------------------------------------------------------------------------------
                            number of included internuclear angles:         27
 ==============================================================================



  library name resolved from: .nwchemrc
  library file name is: </opt/homebrew/Cellar/nwchem/7.2.3_1/share/nwchem/libraries/>
  


 Summary of "ao basis" -> "" (cartesian)
 ------------------------------------------------------------------------------
       Tag                 Description            Shells   Functions and Types
 ---------------- ------------------------------  ------  ---------------------
 *                          6-311G*                   on all atoms 


  pbe96 is a nonlocal functional; adding pw91lda local functional. 

                                 NWChem DFT Module
                                 -----------------


    3-pentanone LR-TDDFT, LC-wPBE mu=0.342545, 6-311G* Cartesian, PBE0 geometry


                      Basis "ao basis" -> "ao basis" (cartesian)
                      -----
  C (Carbon)
  ----------
            Exponent  Coefficients 
       -------------- ---------------------------------------------------------
  1 S  4.56324000E+03  0.001967
  1 S  6.82024000E+02  0.015231
  1 S  1.54973000E+02  0.076127
  1 S  4.44553000E+01  0.260801
  1 S  1.30290000E+01  0.616462
  1 S  1.82773000E+00  0.221006

  2 S  2.09642000E+01  0.114660
  2 S  4.80331000E+00  0.919999
  2 S  1.45933000E+00 -0.003031

  3 P  2.09642000E+01  0.040249
  3 P  4.80331000E+00  0.237594
  3 P  1.45933000E+00  0.815854

  4 S  4.83456000E-01  1.000000

  5 P  4.83456000E-01  1.000000

  6 S  1.45585000E-01  1.000000

  7 P  1.45585000E-01  1.000000

  8 D  6.26000000E-01  1.000000

  O (Oxygen)
  ----------
            Exponent  Coefficients 
       -------------- ---------------------------------------------------------
  1 S  8.58850000E+03  0.001895
  1 S  1.29723000E+03  0.014386
  1 S  2.99296000E+02  0.070732
  1 S  8.73771000E+01  0.240001
  1 S  2.56789000E+01  0.594797
  1 S  3.74004000E+00  0.280802

  2 S  4.21175000E+01  0.113889
  2 S  9.62837000E+00  0.920811
  2 S  2.85332000E+00 -0.003274

  3 P  4.21175000E+01  0.036511
  3 P  9.62837000E+00  0.237153
  3 P  2.85332000E+00  0.819702

  4 S  9.05661000E-01  1.000000

  5 P  9.05661000E-01  1.000000

  6 S  2.55611000E-01  1.000000

  7 P  2.55611000E-01  1.000000

  8 D  1.29200000E+00  1.000000

  H (Hydrogen)
  ------------
            Exponent  Coefficients 
       -------------- ---------------------------------------------------------
  1 S  3.38650000E+01  0.025494
  1 S  5.09479000E+00  0.190373
  1 S  1.15879000E+00  0.852161

  2 S  3.25840000E-01  1.000000

  3 S  1.02741000E-01  1.000000



 Summary of "ao basis" -> "ao basis" (cartesian)
 ------------------------------------------------------------------------------
       Tag                 Description            Shells   Functions and Types
 ---------------- ------------------------------  ------  ---------------------
 C                          6-311G*                  8       19   4s3p1d
 O                          6-311G*                  8       19   4s3p1d
 H                          6-311G*                  3        3   3s




 Summary of "ao basis" -> "ao basis" (cartesian)
 ------------------------------------------------------------------------------
       Tag                 Description            Shells   Functions and Types
 ---------------- ------------------------------  ------  ---------------------
 C                          6-311G*                  8       19   4s3p1d
 O                          6-311G*                  8       19   4s3p1d
 H                          6-311G*                  3        3   3s


  int_init: cando_txs set to always be  F
  Caching 1-el integrals 

            General Information
            -------------------
          SCF calculation type: DFT
          Wavefunction type:  closed shell.
          No. of atoms     :    16
          No. of electrons :    48
           Alpha electrons :    24
            Beta electrons :    24
          Charge           :     0
          Spin multiplicity:     1
          Use of symmetry is: off; symmetry adaption is: off
          Maximum number of iterations: 100
          AO basis - number of functions:   144
                     number of shells:    78
          Convergence on energy requested:  1.00D-07
          Convergence on density requested:  1.00D-05
          Convergence on gradient requested:  5.00D-04

              XC Information
              --------------
                     Hartree-Fock (Exact) Exchange  1.000          
                     LC-wPBE(h)Exchange Functional  1.000          
            Perdew 1991 LDA Correlation Functional  1.000 local    
           PerdewBurkeErnz. Correlation Functional  1.000 non-local

           Range-Separation Parameters        
           ---------------------------
           Alpha           :  0.00
           Beta            :  1.00
           Gamma           :  0.34
           Short-Range HF  :     F

             Grid Information
             ----------------
          Grid used for XC integration:  fine      
          Radial quadrature: Mura-Knowles        
          Angular quadrature: Lebedev. 
          Tag              B.-S. Rad. Rad. Pts. Rad. Cut. Ang. Pts.
          ---              ---------- --------- --------- ---------
          C                   0.70       70          14.0       590
          O                   0.60       70          11.0       590
          H                   0.35       60          15.0       590
          Grid pruning is: on 
          Number of quadrature shells:  1020
          Spatial weights used:  Erf1

          Convergence Information
          -----------------------
          Convergence aids based upon iterative change in 
          total energy or number of iterations. 
          Levelshifting, if invoked, occurs when the 
          HOMO/LUMO gap drops below (HL_TOL):  1.00D-02
          DIIS, if invoked, will attempt to extrapolate 
          using up to (NFOCK): 10 stored Fock matrices.

                    Damping( 0%)  Levelshifting(0.5)       DIIS
                  --------------- ------------------- ---------------
          dE  on:    start            ASAP                start   
          dE off:    2 iters        100 iters           100 iters 


      Screening Tolerance Information
      -------------------------------
          Density screening/tol_rho:  1.00D-10
          AO Gaussian exp screening on grid/accAOfunc:  16
          CD Gaussian exp screening on grid/accCDfunc:  20
          XC Gaussian exp screening on grid/accXCfunc:  20
          Schwarz screening/accCoul:  1.00D-08

  
  CAM type calculations without CDFIT are
  only available with the direct option.
  Forcing Direct SCF
  

      Superposition of Atomic Density Guess
      -------------------------------------

 Sum of atomic energies:        -268.11698100

      Non-variational initial energy
      ------------------------------

 Total energy =    -272.046024
 1-e energy   =    -835.802104
 2-e energy   =     323.983235
 HOMO         =      -0.318732
 LUMO         =      -0.007736

  WARNING: movecs_in_org=atomic not equal to movecs_in=/Users/bldrdge1/Downloads/repos/PlasMol/jobs/final/Step_1/pentan3one/pentan3one_td.movecs
   Time after variat. SCF:      1.1
   Time prior to 1st pass:      1.1

 Grid_pts file          = /Users/bldrdge1/Downloads/repos/PlasMol/jobs/final/Step_1/pentan3one/pentan3one_td.gridpts.0
 Record size in doubles =  12289        No. of grid_pts per rec  =   3070
 Max. records in memory =    217        Max. recs in file   =    827066

 Grid integrated density:      48.000007338029
 Requested integration accuracy:   0.10E-06

           Memory utilization after 1st SCF pass: 
           Heap Space remaining (MW):       79.25            79251812
          Stack Space remaining (MW):       81.92            81918780

   convergence    iter        energy       DeltaE   RMS-Dens  Diis-err    time
 ---------------- ----- ----------------- --------- --------- ---------  ------
 d= 0,ls=0.0,diis     1   -271.4950298140 -5.11D+02  1.04D-02  1.69D+00    16.4
 Grid integrated density:      48.000009219797
 Requested integration accuracy:   0.10E-06
 d= 0,ls=0.0,diis     2   -271.4800067680  1.50D-02  7.07D-03  1.81D+00    27.7
 Grid integrated density:      48.000006013896
 Requested integration accuracy:   0.10E-06
 d= 0,ls=0.0,diis     3   -271.6239762588 -1.44D-01  1.00D-03  1.19D-01    38.7
 Grid integrated density:      48.000006132021
 Requested integration accuracy:   0.10E-06
 d= 0,ls=0.0,diis     4   -271.6337892390 -9.81D-03  2.88D-04  1.70D-03    49.7
 Grid integrated density:      48.000006128123
 Requested integration accuracy:   0.10E-06
 d= 0,ls=0.0,diis     5   -271.6339903610 -2.01D-04  1.07D-04  1.72D-04    60.8
 Grid integrated density:      48.000006133768
 Requested integration accuracy:   0.10E-06
  Resetting Diis
 d= 0,ls=0.0,diis     6   -271.6340190707 -2.87D-05  6.23D-05  2.10D-05    72.1
 Grid integrated density:      48.000006134888
 Requested integration accuracy:   0.10E-06
 d= 0,ls=0.0,diis     7   -271.6340224370 -3.37D-06  1.75D-05  1.09D-06    83.3
 Grid integrated density:      48.000006134939
 Requested integration accuracy:   0.10E-06
 d= 0,ls=0.0,diis     8   -271.6340225726 -1.36D-07  2.90D-06  9.23D-07    94.6
 Grid integrated density:      48.000006135820
 Requested integration accuracy:   0.10E-06
 d= 0,ls=0.0,diis     9   -271.6340226577 -8.51D-08  4.94D-06  1.13D-07   105.7


         Total DFT energy =     -271.634022657723
      One electron energy =     -841.930594464390
           Coulomb energy =      369.785497576144
    Exchange-Corr. energy =      -39.261770806981
 Nuclear repulsion energy =      239.772845037504

 Numeric. integr. density =       48.000006135820

     Total iterative time =    104.6s



                       DFT Final Molecular Orbital Analysis
                       ------------------------------------

 Vector    1  Occ=2.000000D+00  E=-1.891838D+01
              MO Center= -9.7D-07, -1.3D+00,  1.1D-05, r^2= 1.5D-02
   Bfn.  Coefficient  Atom+Function         Bfn.  Coefficient  Atom+Function  
  ----- ------------  ---------------      ----- ------------  ---------------
    58      0.552368   4 O  s                59      0.464938   4 O  s         

 Vector    2  Occ=2.000000D+00  E=-1.016059D+01
              MO Center=  2.3D-07, -6.9D-02,  5.9D-06, r^2= 2.8D-02
   Bfn.  Coefficient  Atom+Function         Bfn.  Coefficient  Atom+Function  
  ----- ------------  ---------------      ----- ------------  ---------------
    39      0.564255   3 C  s                40      0.457834   3 C  s         
    44      0.025325   3 C  s         

 Vector    3  Occ=2.000000D+00  E=-1.008628D+01
              MO Center=  1.5D-02,  7.3D-01, -3.5D-06, r^2= 1.7D+00
   Bfn.  Coefficient  Atom+Function         Bfn.  Coefficient  Atom+Function  
  ----- ------------  ---------------      ----- ------------  ---------------
    20      0.401435   2 C  s                77     -0.396678   5 C  s         
    21      0.325516   2 C  s                78     -0.321659   5 C  s         

 Vector    4  Occ=2.000000D+00  E=-1.008626D+01
              MO Center= -1.5D-02,  7.3D-01, -3.9D-06, r^2= 1.7D+00
   Bfn.  Coefficient  Atom+Function         Bfn.  Coefficient  Atom+Function  
  ----- ------------  ---------------      ----- ------------  ---------------
    77      0.401439   5 C  s                20      0.396682   2 C  s         
    78      0.325522   5 C  s                21      0.321665   2 C  s         

 Vector    5  Occ=2.000000D+00  E=-1.006600D+01
              MO Center=  2.0D-01, -1.3D-01, -3.8D-06, r^2= 6.4D+00
   Bfn.  Coefficient  Atom+Function         Bfn.  Coefficient  Atom+Function  
  ----- ------------  ---------------      ----- ------------  ---------------
     1      0.414230   1 C  s                96     -0.383282   6 C  s         
     2      0.335957   1 C  s                97     -0.310856   6 C  s         

 Vector    6  Occ=2.000000D+00  E=-1.006600D+01
              MO Center= -2.0D-01, -1.3D-01, -2.8D-06, r^2= 6.4D+00
   Bfn.  Coefficient  Atom+Function         Bfn.  Coefficient  Atom+Function  
  ----- ------------  ---------------      ----- ------------  ---------------
    96      0.414227   6 C  s                 1      0.383280   1 C  s         
    97      0.335968   6 C  s                 2      0.310868   1 C  s         

 Vector    7  Occ=2.000000D+00  E=-1.150096D+00
              MO Center= -6.1D-07, -8.6D-01,  9.0D-06, r^2= 5.9D-01
   Bfn.  Coefficient  Atom+Function         Bfn.  Coefficient  Atom+Function  
  ----- ------------  ---------------      ----- ------------  ---------------
    63      0.469242   4 O  s                67      0.330985   4 O  s         
    44      0.269802   3 C  s                59     -0.165033   4 O  s         
    46     -0.110850   3 C  py               65      0.108911   4 O  py        
    40     -0.104655   3 C  s                58     -0.103648   4 O  s         
    48      0.091313   3 C  s                42     -0.085383   3 C  py        

 Vector    8  Occ=2.000000D+00  E=-9.171626D-01
              MO Center=  1.3D-05,  4.3D-01, -1.6D-06, r^2= 3.3D+00
   Bfn.  Coefficient  Atom+Function         Bfn.  Coefficient  Atom+Function  
  ----- ------------  ---------------      ----- ------------  ---------------
    25      0.251649   2 C  s                82      0.251646   5 C  s         
    63     -0.167112   4 O  s                 6      0.155186   1 C  s         
    29      0.155573   2 C  s                86      0.155576   5 C  s         
   101      0.155185   6 C  s                44      0.140136   3 C  s         
    67     -0.126530   4 O  s                46      0.102439   3 C  py        

 Vector    9  Occ=2.000000D+00  E=-8.927394D-01
              MO Center= -1.3D-05,  3.0D-01, -2.6D-06, r^2= 4.8D+00
   Bfn.  Coefficient  Atom+Function         Bfn.  Coefficient  Atom+Function  
  ----- ------------  ---------------      ----- ------------  ---------------
    25      0.236262   2 C  s                82     -0.236265   5 C  s         
     6      0.221984   1 C  s               101     -0.221985   6 C  s         
    29      0.160036   2 C  s                86     -0.160036   5 C  s         
    10      0.129443   1 C  s               105     -0.129444   6 C  s         
    21     -0.090174   2 C  s                78      0.090175   5 C  s         

 Vector   10  Occ=2.000000D+00  E=-7.954550D-01
              MO Center=  4.6D-06,  4.4D-02, -2.3D-06, r^2= 6.0D+00
   Bfn.  Coefficient  Atom+Function         Bfn.  Coefficient  Atom+Function  
  ----- ------------  ---------------      ----- ------------  ---------------
     6      0.260707   1 C  s               101      0.260706   6 C  s         
    10      0.186857   1 C  s               105      0.186858   6 C  s         
    44     -0.184259   3 C  s                48     -0.117088   3 C  s         
     2     -0.098092   1 C  s                97     -0.098091   6 C  s         
    26      0.097284   2 C  px               83     -0.097284   5 C  px        

 Vector   11  Occ=2.000000D+00  E=-7.342908D-01
              MO Center= -4.6D-06,  2.4D-01, -3.0D-06, r^2= 6.2D+00
   Bfn.  Coefficient  Atom+Function         Bfn.  Coefficient  Atom+Function  
  ----- ------------  ---------------      ----- ------------  ---------------
     6      0.215221   1 C  s               101     -0.215222   6 C  s         
    25     -0.203442   2 C  s                82      0.203443   5 C  s         
    29     -0.189195   2 C  s                86      0.189189   5 C  s         
    10      0.178122   1 C  s               105     -0.178119   6 C  s         
    45     -0.103441   3 C  px                2     -0.080563   1 C  s         

 Vector   12  Occ=2.000000D+00  E=-6.331107D-01
              MO Center=  4.0D-06,  1.6D-01, -1.2D-06, r^2= 3.7D+00
   Bfn.  Coefficient  Atom+Function         Bfn.  Coefficient  Atom+Function  
  ----- ------------  ---------------      ----- ------------  ---------------
    44      0.305346   3 C  s                67     -0.241679   4 O  s         
    63     -0.223891   4 O  s                48      0.189909   3 C  s         
    65      0.130950   4 O  py               27     -0.123605   2 C  py        
    84     -0.123604   5 C  py               25     -0.105027   2 C  s         
    82     -0.105026   5 C  s                40     -0.104300   3 C  s         

 Vector   13  Occ=2.000000D+00  E=-6.002900D-01
              MO Center= -2.3D-06,  1.8D-01, -1.4D-06, r^2= 4.0D+00
   Bfn.  Coefficient  Atom+Function         Bfn.  Coefficient  Atom+Function  
  ----- ------------  ---------------      ----- ------------  ---------------
    45      0.198048   3 C  px               64      0.157271   4 O  px        
    27     -0.144330   2 C  py               84      0.144330   5 C  py        
    41      0.135426   3 C  px               49      0.115726   3 C  px        
    68      0.108676   4 O  px               60      0.106847   4 O  px        
    23     -0.090346   2 C  py               80      0.090347   5 C  py        

 Vector   14  Occ=2.000000D+00  E=-5.980698D-01
              MO Center=  3.9D-06,  3.8D-01,  9.4D-07, r^2= 3.7D+00
   Bfn.  Coefficient  Atom+Function         Bfn.  Coefficient  Atom+Function  
  ----- ------------  ---------------      ----- ------------  ---------------
    28      0.173502   2 C  pz               85      0.173501   5 C  pz        
    47      0.154246   3 C  pz               66      0.121552   4 O  pz        
    32      0.117132   2 C  pz               89      0.117131   5 C  pz        
    24      0.106537   2 C  pz               81      0.106537   5 C  pz        
     9      0.098755   1 C  pz              104      0.098755   6 C  pz        

 Vector   15  Occ=2.000000D+00  E=-5.553531D-01
              MO Center= -2.8D-06,  3.5D-01, -4.2D-06, r^2= 5.5D+00
   Bfn.  Coefficient  Atom+Function         Bfn.  Coefficient  Atom+Function  
  ----- ------------  ---------------      ----- ------------  ---------------
    28      0.172124   2 C  pz               85     -0.172125   5 C  pz        
     9      0.158482   1 C  pz              104     -0.158482   6 C  pz        
    32      0.116151   2 C  pz               89     -0.116151   5 C  pz        
    24      0.106073   2 C  pz               81     -0.106073   5 C  pz        
    13      0.101074   1 C  pz              108     -0.101074   6 C  pz        

 Vector   16  Occ=2.000000D+00  E=-5.433496D-01
              MO Center=  9.9D-07, -7.0D-01,  6.5D-06, r^2= 3.2D+00
   Bfn.  Coefficient  Atom+Function         Bfn.  Coefficient  Atom+Function  
  ----- ------------  ---------------      ----- ------------  ---------------
    65      0.269754   4 O  py               67     -0.253320   4 O  s         
    69      0.209966   4 O  py               46     -0.207090   3 C  py        
    61      0.194383   4 O  py               63     -0.176414   4 O  s         
    42     -0.143562   3 C  py                8      0.113754   1 C  py        
    26      0.113874   2 C  px               83     -0.113874   5 C  px        

 Vector   17  Occ=2.000000D+00  E=-5.171995D-01
              MO Center=  5.6D-06,  1.7D-01, -2.3D-06, r^2= 7.6D+00
   Bfn.  Coefficient  Atom+Function         Bfn.  Coefficient  Atom+Function  
  ----- ------------  ---------------      ----- ------------  ---------------
     7      0.206530   1 C  px              102     -0.206529   6 C  px        
   122      0.132213   9 H  s               143      0.132213  16 H  s         
     3      0.131526   1 C  px               98     -0.131526   6 C  px        
    11      0.130446   1 C  px              106     -0.130446   6 C  px        
   121      0.108241   9 H  s               142      0.108241  16 H  s         

 Vector   18  Occ=2.000000D+00  E=-4.859758D-01
              MO Center=  1.2D-06, -5.8D-01, -1.8D-06, r^2= 5.1D+00
   Bfn.  Coefficient  Atom+Function         Bfn.  Coefficient  Atom+Function  
  ----- ------------  ---------------      ----- ------------  ---------------
    66      0.220046   4 O  pz                9     -0.181235   1 C  pz        
    70      0.181106   4 O  pz              104     -0.181234   6 C  pz        
    47      0.172251   3 C  pz               62      0.149424   4 O  pz        
    13     -0.145412   1 C  pz              108     -0.145412   6 C  pz        
    51      0.130742   3 C  pz                5     -0.113550   1 C  pz        

 Vector   19  Occ=2.000000D+00  E=-4.755764D-01
              MO Center=  2.5D-05,  9.2D-02,  1.1D-06, r^2= 6.9D+00
   Bfn.  Coefficient  Atom+Function         Bfn.  Coefficient  Atom+Function  
  ----- ------------  ---------------      ----- ------------  ---------------
     8      0.204545   1 C  py              103     -0.204543   6 C  py        
    12      0.140827   1 C  py              107     -0.140826   6 C  py        
     4      0.129344   1 C  py               99     -0.129343   6 C  py        
    27     -0.127168   2 C  py               84      0.127166   5 C  py        
   122      0.090463   9 H  s               143     -0.090462  16 H  s         

 Vector   20  Occ=2.000000D+00  E=-4.647237D-01
              MO Center= -1.7D-05,  4.2D-02, -4.6D-06, r^2= 5.9D+00
   Bfn.  Coefficient  Atom+Function         Bfn.  Coefficient  Atom+Function  
  ----- ------------  ---------------      ----- ------------  ---------------
     8      0.171466   1 C  py              103      0.171468   6 C  py        
    65     -0.155888   4 O  py               48      0.148692   3 C  s         
    27     -0.138586   2 C  py               46      0.139097   3 C  py        
    84     -0.138590   5 C  py               69     -0.133863   4 O  py        
    12      0.128490   1 C  py              107      0.128492   6 C  py        

 Vector   21  Occ=2.000000D+00  E=-4.622139D-01
              MO Center= -1.6D-05,  8.7D-02, -8.0D-07, r^2= 6.1D+00
   Bfn.  Coefficient  Atom+Function         Bfn.  Coefficient  Atom+Function  
  ----- ------------  ---------------      ----- ------------  ---------------
     7      0.195993   1 C  px              102      0.195994   6 C  px        
    49      0.166960   3 C  px               26     -0.155801   2 C  px        
    83     -0.155801   5 C  px               64      0.148004   4 O  px        
    45      0.147049   3 C  px                3      0.127700   1 C  px        
    98      0.127701   6 C  px               11      0.124415   1 C  px        

 Vector   22  Occ=2.000000D+00  E=-4.490660D-01
              MO Center=  3.8D-05, -1.1D-01,  6.9D-06, r^2= 4.2D+00
   Bfn.  Coefficient  Atom+Function         Bfn.  Coefficient  Atom+Function  
  ----- ------------  ---------------      ----- ------------  ---------------
    66      0.251324   4 O  pz               70      0.221063   4 O  pz        
    62      0.172678   4 O  pz               51      0.133633   3 C  pz        
    28     -0.132159   2 C  pz               32     -0.131790   2 C  pz        
    85     -0.132154   5 C  pz               89     -0.131786   5 C  pz        
    47      0.111497   3 C  pz                9      0.100583   1 C  pz        

 Vector   23  Occ=2.000000D+00  E=-4.476483D-01
              MO Center= -4.1D-05,  2.6D-01, -7.5D-06, r^2= 6.2D+00
   Bfn.  Coefficient  Atom+Function         Bfn.  Coefficient  Atom+Function  
  ----- ------------  ---------------      ----- ------------  ---------------
     9      0.166123   1 C  pz              104     -0.166126   6 C  pz        
    28     -0.160254   2 C  pz               85      0.160257   5 C  pz        
    13      0.139553   1 C  pz              108     -0.139556   6 C  pz        
    32     -0.132499   2 C  pz               89      0.132502   5 C  pz        
   125     -0.108211  10 H  s               128      0.108211  11 H  s         

 Vector   24  Occ=2.000000D+00  E=-3.480353D-01
              MO Center= -1.5D-06, -6.2D-01,  6.8D-06, r^2= 2.1D+00
   Bfn.  Coefficient  Atom+Function         Bfn.  Coefficient  Atom+Function  
  ----- ------------  ---------------      ----- ------------  ---------------
    64      0.369246   4 O  px               68      0.370827   4 O  px        
    29     -0.267219   2 C  s                86      0.267235   5 C  s         
    60      0.255982   4 O  px               30      0.153249   2 C  px        
    87      0.153253   5 C  px               31      0.149841   2 C  py        
    88     -0.149842   5 C  py               26      0.127728   2 C  px        

 Vector   25  Occ=0.000000D+00  E= 7.667771D-02
              MO Center=  3.2D-07, -3.8D-02,  7.3D-06, r^2= 2.7D+00
   Bfn.  Coefficient  Atom+Function         Bfn.  Coefficient  Atom+Function  
  ----- ------------  ---------------      ----- ------------  ---------------
    51      0.471350   3 C  pz               70     -0.409370   4 O  pz        
    47      0.353863   3 C  pz              126     -0.332653  10 H  s         
   129      0.332635  11 H  s               132     -0.332636  12 H  s         
   135      0.332651  13 H  s                66     -0.260890   4 O  pz        
    43      0.218336   3 C  pz               32      0.216639   2 C  pz        

 Vector   26  Occ=0.000000D+00  E= 1.174187D-01
              MO Center=  2.0D-05,  1.2D+00, -7.4D-06, r^2= 7.9D+00
   Bfn.  Coefficient  Atom+Function         Bfn.  Coefficient  Atom+Function  
  ----- ------------  ---------------      ----- ------------  ---------------
    29      1.007404   2 C  s                86      1.007482   5 C  s         
    10      0.728325   1 C  s               105      0.728272   6 C  s         
   126     -0.697272  10 H  s               129     -0.697261  11 H  s         
   132     -0.697248  12 H  s               135     -0.697262  13 H  s         
    31      0.479766   2 C  py               88      0.479720   5 C  py        

 Vector   27  Occ=0.000000D+00  E= 1.497080D-01
              MO Center= -3.5D-05,  5.0D-01, -3.1D-06, r^2= 1.4D+01
   Bfn.  Coefficient  Atom+Function         Bfn.  Coefficient  Atom+Function  
  ----- ------------  ---------------      ----- ------------  ---------------
    10      1.320562   1 C  s               105     -1.320610   6 C  s         
   123     -0.803584   9 H  s               144      0.803591  16 H  s         
   126     -0.490485  10 H  s               129     -0.490538  11 H  s         
   132      0.490546  12 H  s               135      0.490488  13 H  s         
   117     -0.422859   7 H  s               120     -0.422892   8 H  s         

 Vector   28  Occ=0.000000D+00  E= 1.624610D-01
              MO Center=  1.6D-05,  3.5D-02, -5.5D-06, r^2= 1.3D+01
   Bfn.  Coefficient  Atom+Function         Bfn.  Coefficient  Atom+Function  
  ----- ------------  ---------------      ----- ------------  ---------------
    10      1.542517   1 C  s               105      1.542524   6 C  s         
   117     -0.636495   7 H  s               120     -0.636466   8 H  s         
   138     -0.636493  14 H  s               141     -0.636460  15 H  s         
    29     -0.614705   2 C  s                86     -0.614741   5 C  s         
   123     -0.572635   9 H  s               144     -0.572628  16 H  s         

 Vector   29  Occ=0.000000D+00  E= 1.693217D-01
              MO Center=  3.5D-06,  7.6D-01, -1.2D-05, r^2= 8.1D+00
   Bfn.  Coefficient  Atom+Function         Bfn.  Coefficient  Atom+Function  
  ----- ------------  ---------------      ----- ------------  ---------------
   126      0.883448  10 H  s               129     -0.883385  11 H  s         
   132      0.883384  12 H  s               135     -0.883445  13 H  s         
    32     -0.643868   2 C  pz               89     -0.643867   5 C  pz        
   117      0.558643   7 H  s               120     -0.558676   8 H  s         
   138     -0.558657  14 H  s               141      0.558658  15 H  s         

 Vector   30  Occ=0.000000D+00  E= 1.993494D-01
              MO Center=  1.8D-03,  2.3D-01,  2.0D-05, r^2= 1.5D+01
   Bfn.  Coefficient  Atom+Function         Bfn.  Coefficient  Atom+Function  
  ----- ------------  ---------------      ----- ------------  ---------------
   123      1.461767   9 H  s               144      1.461211  16 H  s         
    12     -0.749276   1 C  py              107     -0.748828   6 C  py        
   117     -0.677375   7 H  s               120     -0.677390   8 H  s         
   138     -0.676530  14 H  s               141     -0.676623  15 H  s         
    11     -0.511359   1 C  px              106      0.511060   6 C  px        

 Vector   31  Occ=0.000000D+00  E= 1.995065D-01
              MO Center= -1.8D-03, -1.5D-01,  7.7D-06, r^2= 1.2D+01
   Bfn.  Coefficient  Atom+Function         Bfn.  Coefficient  Atom+Function  
  ----- ------------  ---------------      ----- ------------  ---------------
    29      1.067738   2 C  s                86     -1.067465   5 C  s         
    10     -0.893990   1 C  s               105      0.893957   6 C  s         
   117      0.886854   7 H  s               120      0.886935   8 H  s         
   138     -0.887462  14 H  s               141     -0.887561  15 H  s         
   123     -0.605122   9 H  s               144      0.606448  16 H  s         

 Vector   32  Occ=0.000000D+00  E= 2.040219D-01
              MO Center= -1.9D-06,  9.7D-02, -6.3D-06, r^2= 1.1D+01
   Bfn.  Coefficient  Atom+Function         Bfn.  Coefficient  Atom+Function  
  ----- ------------  ---------------      ----- ------------  ---------------
   117      0.904632   7 H  s               120     -0.904611   8 H  s         
   138      0.904631  14 H  s               141     -0.904612  15 H  s         
   126      0.890699  10 H  s               129     -0.890681  11 H  s         
   132     -0.890683  12 H  s               135      0.890702  13 H  s         
    32     -0.541902   2 C  pz               89      0.541904   5 C  pz        

 Vector   33  Occ=0.000000D+00  E= 2.236749D-01
              MO Center= -7.6D-06,  1.0D+00, -2.1D-05, r^2= 1.3D+01
   Bfn.  Coefficient  Atom+Function         Bfn.  Coefficient  Atom+Function  
  ----- ------------  ---------------      ----- ------------  ---------------
   123      1.327596   9 H  s               144     -1.327610  16 H  s         
    29      1.216514   2 C  s                86     -1.216389   5 C  s         
   126     -0.840748  10 H  s               129     -0.840780  11 H  s         
   132      0.840728  12 H  s               135      0.840810  13 H  s         
    12     -0.603607   1 C  py              107      0.603607   6 C  py        

 Vector   34  Occ=0.000000D+00  E= 2.331624D-01
              MO Center=  2.1D-04, -3.5D-01, -8.5D-06, r^2= 1.1D+01
   Bfn.  Coefficient  Atom+Function         Bfn.  Coefficient  Atom+Function  
  ----- ------------  ---------------      ----- ------------  ---------------
   117      1.168480   7 H  s               120     -1.168375   8 H  s         
   138     -1.168386  14 H  s               141      1.168272  15 H  s         
    13     -0.862624   1 C  pz              108     -0.862535   6 C  pz        
   126     -0.676826  10 H  s               129      0.676786  11 H  s         
   132     -0.676659  12 H  s               135      0.676699  13 H  s         

 Vector   35  Occ=0.000000D+00  E= 2.339002D-01
              MO Center= -2.1D-04,  4.3D-01,  2.1D-06, r^2= 1.0D+01
   Bfn.  Coefficient  Atom+Function         Bfn.  Coefficient  Atom+Function  
  ----- ------------  ---------------      ----- ------------  ---------------
   126      1.143105  10 H  s               129     -1.143119  11 H  s         
   132     -1.143223  12 H  s               135      1.143150  13 H  s         
   117     -0.904240   7 H  s               120      0.904281   8 H  s         
   138     -0.904393  14 H  s               141      0.904386  15 H  s         
    32     -0.884998   2 C  pz               89      0.885066   5 C  pz        

 Vector   36  Occ=0.000000D+00  E= 2.791590D-01
              MO Center=  2.9D-06,  3.3D-01, -5.7D-06, r^2= 6.5D+00
   Bfn.  Coefficient  Atom+Function         Bfn.  Coefficient  Atom+Function  
  ----- ------------  ---------------      ----- ------------  ---------------
    11      1.111234   1 C  px               29      1.112320   2 C  s         
    86      1.112305   5 C  s               106     -1.111229   6 C  px        
    31     -0.993538   2 C  py               88     -0.993538   5 C  py        
    10     -0.940943   1 C  s               105     -0.940938   6 C  s         
    30      0.905648   2 C  px               87     -0.905645   5 C  px        

 Vector   37  Occ=0.000000D+00  E= 2.986842D-01
              MO Center= -2.9D-05,  7.7D-01, -6.4D-06, r^2= 5.2D+00
   Bfn.  Coefficient  Atom+Function         Bfn.  Coefficient  Atom+Function  
  ----- ------------  ---------------      ----- ------------  ---------------
    48      3.853786   3 C  s                29     -1.657931   2 C  s         
    86     -1.658041   5 C  s                30      1.551938   2 C  px        
    87     -1.551918   5 C  px               50      1.256607   3 C  py        
    31      0.673099   2 C  py               88      0.673178   5 C  py        
    12     -0.373917   1 C  py              107     -0.373886   6 C  py        

 Vector   38  Occ=0.000000D+00  E= 3.382069D-01
              MO Center= -2.2D-05, -2.4D-02, -1.1D-06, r^2= 8.6D+00
   Bfn.  Coefficient  Atom+Function         Bfn.  Coefficient  Atom+Function  
  ----- ------------  ---------------      ----- ------------  ---------------
    29     -1.364442   2 C  s                86      1.364526   5 C  s         
    30     -1.338481   2 C  px               87     -1.338484   5 C  px        
    11     -1.325611   1 C  px              106     -1.325623   6 C  px        
    10      1.288531   1 C  s               105     -1.288550   6 C  s         
    12      0.983541   1 C  py              107     -0.983560   6 C  py        

 Vector   39  Occ=0.000000D+00  E= 3.634512D-01
              MO Center= -6.0D-05, -3.9D-01, -4.5D-06, r^2= 6.5D+00
   Bfn.  Coefficient  Atom+Function         Bfn.  Coefficient  Atom+Function  
  ----- ------------  ---------------      ----- ------------  ---------------
    48      2.072537   3 C  s                67     -1.831263   4 O  s         
    50     -1.705393   3 C  py               31      0.887563   2 C  py        
    88      0.887775   5 C  py               11     -0.643015   1 C  px        
   106      0.643091   6 C  px               69     -0.621962   4 O  py        
    10      0.581792   1 C  s               105      0.581838   6 C  s         

 Vector   40  Occ=0.000000D+00  E= 3.694291D-01
              MO Center=  8.5D-05,  7.0D-01, -1.2D-05, r^2= 5.6D+00
   Bfn.  Coefficient  Atom+Function         Bfn.  Coefficient  Atom+Function  
  ----- ------------  ---------------      ----- ------------  ---------------
    49      2.761912   3 C  px               29     -2.080761   2 C  s         
    86      2.080997   5 C  s                31      1.873177   2 C  py        
    88     -1.873060   5 C  py               30      1.007452   2 C  px        
    87      1.007464   5 C  px               11     -0.517075   1 C  px        
   106     -0.517068   6 C  px               68     -0.465491   4 O  px        

 Vector   41  Occ=0.000000D+00  E= 3.877169D-01
              MO Center=  4.0D-05,  3.1D-01,  1.5D-06, r^2= 7.5D+00
   Bfn.  Coefficient  Atom+Function         Bfn.  Coefficient  Atom+Function  
  ----- ------------  ---------------      ----- ------------  ---------------
   116      0.555674   7 H  s               119     -0.555657   8 H  s         
   137      0.555661  14 H  s               140     -0.555642  15 H  s         
    13     -0.499386   1 C  pz              108      0.499370   6 C  pz        
   125      0.495738  10 H  s               128     -0.495707  11 H  s         
   131     -0.495692  12 H  s               134      0.495745  13 H  s         

 Vector   42  Occ=0.000000D+00  E= 3.961226D-01
              MO Center= -3.9D-05,  6.3D-02,  1.6D-06, r^2= 9.6D+00
   Bfn.  Coefficient  Atom+Function         Bfn.  Coefficient  Atom+Function  
  ----- ------------  ---------------      ----- ------------  ---------------
    13      0.907366   1 C  pz              108      0.907375   6 C  pz        
   116     -0.745825   7 H  s               119      0.745943   8 H  s         
   137      0.745846  14 H  s               140     -0.745942  15 H  s         
   117      0.274135   7 H  s               120     -0.274141   8 H  s         
   138     -0.274142  14 H  s               141      0.274140  15 H  s         

 Vector   43  Occ=0.000000D+00  E= 4.049354D-01
              MO Center=  6.3D-05,  4.2D-01, -8.3D-06, r^2= 8.4D+00
   Bfn.  Coefficient  Atom+Function         Bfn.  Coefficient  Atom+Function  
  ----- ------------  ---------------      ----- ------------  ---------------
    29      1.295388   2 C  s                86      1.295359   5 C  s         
    12     -0.926094   1 C  py              107     -0.926068   6 C  py        
    50     -0.851223   3 C  py               31      0.800270   2 C  py        
    88      0.800315   5 C  py               48     -0.723125   3 C  s         
   125     -0.505943  10 H  s               128     -0.505957  11 H  s         

 Vector   44  Occ=0.000000D+00  E= 4.372836D-01
              MO Center= -4.8D-05, -1.8D-01, -6.9D-06, r^2= 9.3D+00
   Bfn.  Coefficient  Atom+Function         Bfn.  Coefficient  Atom+Function  
  ----- ------------  ---------------      ----- ------------  ---------------
    49      1.057170   3 C  px               31      0.903598   2 C  py        
    88     -0.903635   5 C  py               12     -0.868590   1 C  py        
   107      0.868619   6 C  py              122      0.842139   9 H  s         
   143     -0.842144  16 H  s                29     -0.647776   2 C  s         
    86      0.647858   5 C  s               116     -0.445567   7 H  s         

 Vector   45  Occ=0.000000D+00  E= 4.897712D-01
              MO Center=  5.4D-06,  2.2D-01,  8.2D-06, r^2= 6.0D+00
   Bfn.  Coefficient  Atom+Function         Bfn.  Coefficient  Atom+Function  
  ----- ------------  ---------------      ----- ------------  ---------------
    50      1.539081   3 C  py               67      1.321185   4 O  s         
    30      1.109169   2 C  px               87     -1.109147   5 C  px        
    29     -1.099730   2 C  s                86     -1.099675   5 C  s         
    11     -0.779361   1 C  px              106      0.779358   6 C  px        
   122      0.510955   9 H  s               143      0.510946  16 H  s         

 Vector   46  Occ=0.000000D+00  E= 5.006506D-01
              MO Center=  7.1D-06,  4.3D-01, -6.1D-06, r^2= 9.3D+00
   Bfn.  Coefficient  Atom+Function         Bfn.  Coefficient  Atom+Function  
  ----- ------------  ---------------      ----- ------------  ---------------
    13      1.304127   1 C  pz              108     -1.304123   6 C  pz        
    32     -1.247670   2 C  pz               89      1.247665   5 C  pz        
   125      0.755352  10 H  s               128     -0.755271  11 H  s         
   131     -0.755221  12 H  s               134      0.755395  13 H  s         
   116     -0.659894   7 H  s               119      0.659802   8 H  s         

 Vector   47  Occ=0.000000D+00  E= 5.162620D-01
              MO Center= -6.9D-06,  3.2D-01, -3.7D-05, r^2= 4.6D+00
   Bfn.  Coefficient  Atom+Function         Bfn.  Coefficient  Atom+Function  
  ----- ------------  ---------------      ----- ------------  ---------------
    32      0.929562   2 C  pz               89      0.929569   5 C  pz        
    13     -0.821009   1 C  pz              108     -0.821016   6 C  pz        
    47     -0.683614   3 C  pz              125     -0.625633  10 H  s         
   128      0.625419  11 H  s               131     -0.625460  12 H  s         
   134      0.625600  13 H  s                51      0.308719   3 C  pz        

 Vector   48  Occ=0.000000D+00  E= 5.170961D-01
              MO Center= -1.3D-05,  5.5D-01, -5.4D-06, r^2= 6.5D+00
   Bfn.  Coefficient  Atom+Function         Bfn.  Coefficient  Atom+Function  
  ----- ------------  ---------------      ----- ------------  ---------------
    31      0.687197   2 C  py               88     -0.687195   5 C  py        
    49     -0.636907   3 C  px               10      0.581115   1 C  s         
   105     -0.581148   6 C  s                30     -0.571462   2 C  px        
    87     -0.571379   5 C  px              125     -0.488486  10 H  s         
   128     -0.488771  11 H  s               131      0.488772  12 H  s         

 Vector   49  Occ=0.000000D+00  E= 5.480681D-01
              MO Center=  2.0D-05, -2.7D-03,  1.3D-05, r^2= 7.2D+00
   Bfn.  Coefficient  Atom+Function         Bfn.  Coefficient  Atom+Function  
  ----- ------------  ---------------      ----- ------------  ---------------
    50      3.810025   3 C  py               48      2.633106   3 C  s         
    29     -2.269519   2 C  s                86     -2.269518   5 C  s         
    67      1.957572   4 O  s                30      1.717606   2 C  px        
    87     -1.717568   5 C  px               12     -1.101903   1 C  py        
   107     -1.101854   6 C  py              122      0.755986   9 H  s         

 Vector   50  Occ=0.000000D+00  E= 6.183172D-01
              MO Center=  2.2D-05,  5.3D-01,  7.8D-06, r^2= 5.4D+00
   Bfn.  Coefficient  Atom+Function         Bfn.  Coefficient  Atom+Function  
  ----- ------------  ---------------      ----- ------------  ---------------
    10      0.742025   1 C  s               105     -0.742013   6 C  s         
    30     -0.625036   2 C  px               87     -0.625033   5 C  px        
   125      0.535159  10 H  s               128      0.535219  11 H  s         
   131     -0.535220  12 H  s               134     -0.535127  13 H  s         
    25     -0.507766   2 C  s                82      0.507747   5 C  s         

 Vector   51  Occ=0.000000D+00  E= 6.324264D-01
              MO Center=  1.7D-06,  6.7D-01, -6.1D-05, r^2= 4.9D+00
   Bfn.  Coefficient  Atom+Function         Bfn.  Coefficient  Atom+Function  
  ----- ------------  ---------------      ----- ------------  ---------------
    51      1.296825   3 C  pz              126     -0.729912  10 H  s         
   129      0.729965  11 H  s               132     -0.729870  12 H  s         
   135      0.730002  13 H  s               125      0.623646  10 H  s         
   128     -0.623757  11 H  s               131      0.623638  12 H  s         
   134     -0.623765  13 H  s                13      0.587231   1 C  pz        

 Vector   52  Occ=0.000000D+00  E= 6.354016D-01
              MO Center= -3.0D-05,  1.1D+00,  8.5D-05, r^2= 4.8D+00
   Bfn.  Coefficient  Atom+Function         Bfn.  Coefficient  Atom+Function  
  ----- ------------  ---------------      ----- ------------  ---------------
    10      0.877533   1 C  s               105      0.877502   6 C  s         
    31      0.683487   2 C  py               88      0.683475   5 C  py        
   126     -0.650324  10 H  s               129     -0.650244  11 H  s         
   132     -0.650391  12 H  s               135     -0.650206  13 H  s         
   125      0.611703  10 H  s               128      0.611622  11 H  s         

 Vector   53  Occ=0.000000D+00  E= 6.510658D-01
              MO Center=  2.4D-05, -1.3D-01, -2.1D-05, r^2= 9.0D+00
   Bfn.  Coefficient  Atom+Function         Bfn.  Coefficient  Atom+Function  
  ----- ------------  ---------------      ----- ------------  ---------------
    48      1.494170   3 C  s                29     -1.049686   2 C  s         
    86     -1.049707   5 C  s               116     -0.663634   7 H  s         
   119     -0.663659   8 H  s               137     -0.663642  14 H  s         
   140     -0.663633  15 H  s               122     -0.658106   9 H  s         
   143     -0.658109  16 H  s                 6      0.521519   1 C  s         

 Vector   54  Occ=0.000000D+00  E= 6.718588D-01
              MO Center= -2.1D-05, -2.3D-01, -8.2D-06, r^2= 8.4D+00
   Bfn.  Coefficient  Atom+Function         Bfn.  Coefficient  Atom+Function  
  ----- ------------  ---------------      ----- ------------  ---------------
   116      0.662737   7 H  s               119      0.662747   8 H  s         
   137     -0.662743  14 H  s               140     -0.662748  15 H  s         
    31      0.606599   2 C  py               88     -0.606614   5 C  py        
   117     -0.511307   7 H  s               120     -0.511354   8 H  s         
   138      0.511320  14 H  s               141      0.511355  15 H  s         

 Vector   55  Occ=0.000000D+00  E= 6.946504D-01
              MO Center=  3.6D-03, -4.3D-01,  1.3D-04, r^2= 9.4D+00
   Bfn.  Coefficient  Atom+Function         Bfn.  Coefficient  Atom+Function  
  ----- ------------  ---------------      ----- ------------  ---------------
    13      1.417330   1 C  pz              108      1.415178   6 C  pz        
   117     -1.149122   7 H  s               120      1.148772   8 H  s         
   138      1.147176  14 H  s               141     -1.147563  15 H  s         
     9     -0.752272   1 C  pz              104     -0.751215   6 C  pz        
    51      0.431396   3 C  pz               32     -0.279079   2 C  pz        

 Vector   56  Occ=0.000000D+00  E= 6.947013D-01
              MO Center= -3.6D-03, -2.4D-02,  1.8D-05, r^2= 8.4D+00
   Bfn.  Coefficient  Atom+Function         Bfn.  Coefficient  Atom+Function  
  ----- ------------  ---------------      ----- ------------  ---------------
    13      1.270561   1 C  pz              108     -1.272953   6 C  pz        
    32     -1.040472   2 C  pz               89      1.040940   5 C  pz        
   117     -0.931913   7 H  s               120      0.931322   8 H  s         
   138     -0.933804  14 H  s               141      0.933310  15 H  s         
   126      0.645157  10 H  s               129     -0.645040  11 H  s         

 Vector   57  Occ=0.000000D+00  E= 6.966582D-01
              MO Center=  1.8D-05, -1.4D-01, -1.2D-04, r^2= 1.0D+01
   Bfn.  Coefficient  Atom+Function         Bfn.  Coefficient  Atom+Function  
  ----- ------------  ---------------      ----- ------------  ---------------
    48      1.518304   3 C  s                12     -1.307915   1 C  py        
    50      1.313164   3 C  py              107     -1.307865   6 C  py        
   123      1.214750   9 H  s               144      1.214758  16 H  s         
    29     -1.045118   2 C  s                86     -1.045165   5 C  s         
    11     -0.850636   1 C  px              106      0.850674   6 C  px        

 Vector   58  Occ=0.000000D+00  E= 7.064565D-01
              MO Center=  7.3D-06,  5.8D-02,  1.5D-07, r^2= 1.1D+01
   Bfn.  Coefficient  Atom+Function         Bfn.  Coefficient  Atom+Function  
  ----- ------------  ---------------      ----- ------------  ---------------
   123      1.394240   9 H  s               144     -1.394237  16 H  s         
    11     -1.202372   1 C  px              106     -1.202375   6 C  px        
    12     -0.782273   1 C  py              107      0.782261   6 C  py        
     7      0.586723   1 C  px              102      0.586723   6 C  px        
    49     -0.552597   3 C  px                8      0.439342   1 C  py        

 Vector   59  Occ=0.000000D+00  E= 7.119982D-01
              MO Center= -1.4D-05,  8.7D-01,  3.8D-05, r^2= 6.6D+00
   Bfn.  Coefficient  Atom+Function         Bfn.  Coefficient  Atom+Function  
  ----- ------------  ---------------      ----- ------------  ---------------
    31      1.375285   2 C  py               88     -1.375329   5 C  py        
    49      1.363657   3 C  px              126     -0.985063  10 H  s         
   129     -0.984484  11 H  s               132      0.984794  12 H  s         
   135      0.984733  13 H  s                30      0.749291   2 C  px        
    87      0.749209   5 C  px               29     -0.666231   2 C  s         

 Vector   60  Occ=0.000000D+00  E= 7.135510D-01
              MO Center= -4.6D-06,  5.4D-01, -8.6D-05, r^2= 6.7D+00
   Bfn.  Coefficient  Atom+Function         Bfn.  Coefficient  Atom+Function  
  ----- ------------  ---------------      ----- ------------  ---------------
    32      1.342893   2 C  pz               89     -1.342887   5 C  pz        
   126     -1.132843  10 H  s               129      1.133123  11 H  s         
   132      1.132774  12 H  s               135     -1.133190  13 H  s         
    13      0.698304   1 C  pz              108     -0.698311   6 C  pz        
    28     -0.642365   2 C  pz               85      0.642365   5 C  pz        

 Vector   61  Occ=0.000000D+00  E= 7.283205D-01
              MO Center= -4.0D-05,  2.0D-02, -2.0D-06, r^2= 4.9D+00
   Bfn.  Coefficient  Atom+Function         Bfn.  Coefficient  Atom+Function  
  ----- ------------  ---------------      ----- ------------  ---------------
    48      2.311264   3 C  s                44     -1.293394   3 C  s         
    29      0.999268   2 C  s                86      0.999506   5 C  s         
    31      0.670111   2 C  py               88      0.670071   5 C  py        
    10      0.662048   1 C  s               105      0.661895   6 C  s         
    69      0.585938   4 O  py               30      0.533785   2 C  px        

 Vector   62  Occ=0.000000D+00  E= 7.380471D-01
              MO Center=  1.1D-05,  7.9D-02, -1.1D-04, r^2= 8.2D+00
   Bfn.  Coefficient  Atom+Function         Bfn.  Coefficient  Atom+Function  
  ----- ------------  ---------------      ----- ------------  ---------------
    11      1.402243   1 C  px               29      1.401152   2 C  s         
    86      1.401129   5 C  s               106     -1.402237   6 C  px        
    50     -0.881549   3 C  py               30      0.656709   2 C  px        
    87     -0.656803   5 C  px               12     -0.596282   1 C  py        
   107     -0.596291   6 C  py               31     -0.578013   2 C  py        

 Vector   63  Occ=0.000000D+00  E= 7.402912D-01
              MO Center= -1.2D-06,  2.9D-01,  8.2D-05, r^2= 5.7D+00
   Bfn.  Coefficient  Atom+Function         Bfn.  Coefficient  Atom+Function  
  ----- ------------  ---------------      ----- ------------  ---------------
    32      2.942888   2 C  pz               89      2.942891   5 C  pz        
    51     -2.267588   3 C  pz               13     -1.052469   1 C  pz        
   108     -1.052468   6 C  pz              126     -0.770206  10 H  s         
   129      0.770356  11 H  s               132     -0.770570  12 H  s         
   135      0.769996  13 H  s                28     -0.557200   2 C  pz        

 Vector   64  Occ=0.000000D+00  E= 7.614887D-01
              MO Center=  5.2D-05,  8.2D-02,  1.0D-05, r^2= 7.9D+00
   Bfn.  Coefficient  Atom+Function         Bfn.  Coefficient  Atom+Function  
  ----- ------------  ---------------      ----- ------------  ---------------
    30      2.125973   2 C  px               87      2.125983   5 C  px        
    29      1.750453   2 C  s                86     -1.750537   5 C  s         
    12     -1.330732   1 C  py              107      1.330766   6 C  py        
    31     -1.062204   2 C  py               88      1.062267   5 C  py        
    11      0.964142   1 C  px              106      0.964121   6 C  px        

 Vector   65  Occ=0.000000D+00  E= 7.762327D-01
              MO Center=  4.8D-06,  2.1D-01,  9.4D-06, r^2= 3.8D+00
   Bfn.  Coefficient  Atom+Function         Bfn.  Coefficient  Atom+Function  
  ----- ------------  ---------------      ----- ------------  ---------------
    48      5.520761   3 C  s                50      2.881292   3 C  py        
    30      1.849734   2 C  px               87     -1.849679   5 C  px        
    10     -1.469771   1 C  s               105     -1.469754   6 C  s         
    29     -1.187239   2 C  s                86     -1.187156   5 C  s         
    46     -0.933090   3 C  py               31      0.794469   2 C  py        

 Vector   66  Occ=0.000000D+00  E= 8.025907D-01
              MO Center= -4.5D-05,  2.5D-01,  1.5D-07, r^2= 6.7D+00
   Bfn.  Coefficient  Atom+Function         Bfn.  Coefficient  Atom+Function  
  ----- ------------  ---------------      ----- ------------  ---------------
    49      4.424398   3 C  px               10      3.579666   1 C  s         
   105     -3.579931   6 C  s                29     -3.036226   2 C  s         
    86      3.036658   5 C  s                31      2.111380   2 C  py        
    88     -2.111512   5 C  py               30     -1.531854   2 C  px        
    87     -1.531842   5 C  px               12      1.342651   1 C  py        

 Vector   67  Occ=0.000000D+00  E= 8.253366D-01
              MO Center= -4.5D-05, -5.9D-02,  8.1D-06, r^2= 5.7D+00
   Bfn.  Coefficient  Atom+Function         Bfn.  Coefficient  Atom+Function  
  ----- ------------  ---------------      ----- ------------  ---------------
    10      3.018382   1 C  s               105      3.018587   6 C  s         
    48     -2.319497   3 C  s                67      1.519228   4 O  s         
    50      1.406616   3 C  py                6     -0.859743   1 C  s         
   101     -0.859777   6 C  s               116     -0.649415   7 H  s         
   119     -0.649433   8 H  s               137     -0.649435  14 H  s         

 Vector   68  Occ=0.000000D+00  E= 8.811794D-01
              MO Center=  6.7D-07, -1.4D+00,  1.3D-05, r^2= 3.5D+00
   Bfn.  Coefficient  Atom+Function         Bfn.  Coefficient  Atom+Function  
  ----- ------------  ---------------      ----- ------------  ---------------
    10      2.306220   1 C  s               105      2.306105   6 C  s         
    48      1.987439   3 C  s                29     -1.718864   2 C  s         
    86     -1.718795   5 C  s                69     -1.554873   4 O  py        
    67     -0.767734   4 O  s                65      0.580920   4 O  py        
     6     -0.572633   1 C  s               101     -0.572623   6 C  s         

 Vector   69  Occ=0.000000D+00  E= 9.233605D-01
              MO Center= -5.0D-06, -4.6D-02,  6.3D-06, r^2= 6.8D+00
   Bfn.  Coefficient  Atom+Function         Bfn.  Coefficient  Atom+Function  
  ----- ------------  ---------------      ----- ------------  ---------------
    10      5.842988   1 C  s               105     -5.843016   6 C  s         
    29     -3.562827   2 C  s                86      3.562895   5 C  s         
    49     -2.261231   3 C  px               30     -2.016885   2 C  px        
    87     -2.016889   5 C  px               11     -1.345822   1 C  px        
   106     -1.345823   6 C  px                6     -1.055363   1 C  s         

 Vector   70  Occ=0.000000D+00  E= 1.013117D+00
              MO Center= -1.1D-06, -1.1D+00, -8.6D-06, r^2= 2.7D+00
   Bfn.  Coefficient  Atom+Function         Bfn.  Coefficient  Atom+Function  
  ----- ------------  ---------------      ----- ------------  ---------------
    70      1.503276   4 O  pz               51     -1.240575   3 C  pz        
    66     -0.774242   4 O  pz               32      0.665748   2 C  pz        
    89      0.665747   5 C  pz               13     -0.259115   1 C  pz        
   108     -0.259114   6 C  pz               62     -0.237419   4 O  pz        
    16     -0.196999   1 C  dxz             111      0.197000   6 C  dxz       

 Vector   71  Occ=0.000000D+00  E= 1.033542D+00
              MO Center=  6.8D-05,  2.2D-01,  1.8D-05, r^2= 6.4D+00
   Bfn.  Coefficient  Atom+Function         Bfn.  Coefficient  Atom+Function  
  ----- ------------  ---------------      ----- ------------  ---------------
    29     10.017107   2 C  s                86     10.016248   5 C  s         
    48     -7.826838   3 C  s                10     -5.779102   1 C  s         
   105     -5.779059   6 C  s                50     -2.813921   3 C  py        
    31     -1.914239   2 C  py               88     -1.914052   5 C  py        
    11      1.586900   1 C  px              106     -1.586969   6 C  px        

 Vector   72  Occ=0.000000D+00  E= 1.079190D+00
              MO Center= -2.6D-05,  6.2D-01,  2.4D-06, r^2= 5.0D+00
   Bfn.  Coefficient  Atom+Function         Bfn.  Coefficient  Atom+Function  
  ----- ------------  ---------------      ----- ------------  ---------------
    29      7.621401   2 C  s                86     -7.622356   5 C  s         
    49     -6.401856   3 C  px               30     -2.682597   2 C  px        
    87     -2.682614   5 C  px               25     -1.313181   2 C  s         
    82      1.313318   5 C  s                10      1.230134   1 C  s         
   105     -1.229567   6 C  s               125     -1.048251  10 H  s         

 Vector   73  Occ=0.000000D+00  E= 1.167917D+00
              MO Center=  4.7D-06,  2.7D-01,  3.8D-06, r^2= 3.5D+00
   Bfn.  Coefficient  Atom+Function         Bfn.  Coefficient  Atom+Function  
  ----- ------------  ---------------      ----- ------------  ---------------
    54      0.797361   3 C  dxz              35     -0.719265   2 C  dxz       
    92     -0.719262   5 C  dxz              16      0.480296   1 C  dxz       
   111      0.480294   6 C  dxz              13      0.253141   1 C  pz        
   108     -0.253141   6 C  pz              116     -0.233131   7 H  s         
   119      0.233188   8 H  s               137     -0.233161  14 H  s         

 Vector   74  Occ=0.000000D+00  E= 1.242154D+00
              MO Center= -5.4D-06,  1.2D-02, -2.3D-06, r^2= 3.0D+00
   Bfn.  Coefficient  Atom+Function         Bfn.  Coefficient  Atom+Function  
  ----- ------------  ---------------      ----- ------------  ---------------
    56     -1.030741   3 C  dyz              51      0.980997   3 C  pz        
    32     -0.754021   2 C  pz               89     -0.754019   5 C  pz        
    70     -0.718030   4 O  pz               35      0.677097   2 C  dxz       
    92     -0.677101   5 C  dxz              16     -0.432277   1 C  dxz       
   111      0.432280   6 C  dxz             125      0.198134  10 H  s         

 Vector   75  Occ=0.000000D+00  E= 1.248950D+00
              MO Center=  2.5D-06, -9.6D-01,  2.4D-06, r^2= 3.7D+00
   Bfn.  Coefficient  Atom+Function         Bfn.  Coefficient  Atom+Function  
  ----- ------------  ---------------      ----- ------------  ---------------
    29      4.018933   2 C  s                86     -4.018853   5 C  s         
    10     -2.814548   1 C  s               105      2.814507   6 C  s         
    49     -1.867516   3 C  px               68      1.688868   4 O  px        
    11      1.044634   1 C  px              106      1.044625   6 C  px        
    31     -0.833112   2 C  py               88      0.833104   5 C  py        

 Vector   76  Occ=0.000000D+00  E= 1.348884D+00
              MO Center=  2.2D-05,  7.1D-02,  1.9D-06, r^2= 5.5D+00
   Bfn.  Coefficient  Atom+Function         Bfn.  Coefficient  Atom+Function  
  ----- ------------  ---------------      ----- ------------  ---------------
    29      4.941616   2 C  s                86     -4.941581   5 C  s         
    49     -4.520144   3 C  px               10     -2.101499   1 C  s         
   105      2.101491   6 C  s                31     -1.342144   2 C  py        
    88      1.342151   5 C  py               68      1.123884   4 O  px        
    12     -0.780641   1 C  py              107      0.780633   6 C  py        

 Vector   77  Occ=0.000000D+00  E= 1.413774D+00
              MO Center= -1.9D-05,  1.1D-01,  2.5D-06, r^2= 5.6D+00
   Bfn.  Coefficient  Atom+Function         Bfn.  Coefficient  Atom+Function  
  ----- ------------  ---------------      ----- ------------  ---------------
    48      5.056123   3 C  s                29     -3.902680   2 C  s         
    86     -3.902643   5 C  s                50      1.918689   3 C  py        
    10      1.797909   1 C  s               105      1.797846   6 C  s         
    30      0.854586   2 C  px               87     -0.854630   5 C  px        
    31      0.790231   2 C  py               88      0.790200   5 C  py        

 Vector   78  Occ=0.000000D+00  E= 1.507653D+00
              MO Center=  7.3D-06,  4.0D-01,  2.5D-06, r^2= 4.6D+00
   Bfn.  Coefficient  Atom+Function         Bfn.  Coefficient  Atom+Function  
  ----- ------------  ---------------      ----- ------------  ---------------
    32      1.311779   2 C  pz               89     -1.311771   5 C  pz        
   125     -0.927165  10 H  s               128      0.927140  11 H  s         
   131      0.927164  12 H  s               134     -0.927132  13 H  s         
    37      0.887300   2 C  dyz              94     -0.887297   5 C  dyz       
    54     -0.792336   3 C  dxz              16      0.709729   1 C  dxz       

 Vector   79  Occ=0.000000D+00  E= 1.519870D+00
              MO Center=  1.0D-06,  1.9D-01, -9.9D-07, r^2= 3.4D+00
   Bfn.  Coefficient  Atom+Function         Bfn.  Coefficient  Atom+Function  
  ----- ------------  ---------------      ----- ------------  ---------------
    67      2.409216   4 O  s                50      2.031166   3 C  py        
    10     -1.180904   1 C  s               105     -1.180934   6 C  s         
    31     -0.852644   2 C  py               88     -0.852645   5 C  py        
    44     -0.678965   3 C  s                63     -0.636699   4 O  s         
    38     -0.527170   2 C  dzz              95     -0.527169   5 C  dzz       

 Vector   80  Occ=0.000000D+00  E= 1.558674D+00
              MO Center=  1.8D-05, -5.1D-01, -1.6D-05, r^2= 4.3D+00
   Bfn.  Coefficient  Atom+Function         Bfn.  Coefficient  Atom+Function  
  ----- ------------  ---------------      ----- ------------  ---------------
    67      4.713655   4 O  s                50      3.166690   3 C  py        
    69      1.407971   4 O  py               63     -1.381423   4 O  s         
    30      1.373924   2 C  px               87     -1.373936   5 C  px        
    10     -1.145349   1 C  s               105     -1.145369   6 C  s         
    29     -0.548809   2 C  s                86     -0.548851   5 C  s         

 Vector   81  Occ=0.000000D+00  E= 1.575279D+00
              MO Center= -4.6D-06,  2.6D-01,  1.7D-05, r^2= 5.7D+00
   Bfn.  Coefficient  Atom+Function         Bfn.  Coefficient  Atom+Function  
  ----- ------------  ---------------      ----- ------------  ---------------
    32      1.783908   2 C  pz               89      1.783913   5 C  pz        
    51     -1.103409   3 C  pz               13     -1.033217   1 C  pz        
   108     -1.033219   6 C  pz              125     -0.926058  10 H  s         
   128      0.926039  11 H  s               131     -0.925982  12 H  s         
   134      0.926122  13 H  s                16      0.910514   1 C  dxz       

 Vector   82  Occ=0.000000D+00  E= 1.610520D+00
              MO Center=  2.3D-05, -1.7D-01, -6.5D-06, r^2= 7.1D+00
   Bfn.  Coefficient  Atom+Function         Bfn.  Coefficient  Atom+Function  
  ----- ------------  ---------------      ----- ------------  ---------------
    18      1.169548   1 C  dyz             113      1.169535   6 C  dyz       
   116      0.821810   7 H  s               119     -0.821786   8 H  s         
   137     -0.821796  14 H  s               140      0.821779  15 H  s         
    56      0.652636   3 C  dyz              32     -0.645468   2 C  pz        
    89     -0.645474   5 C  pz               51      0.592095   3 C  pz        

 Vector   83  Occ=0.000000D+00  E= 1.624458D+00
              MO Center= -2.5D-05, -1.7D-01,  4.0D-06, r^2= 8.1D+00
   Bfn.  Coefficient  Atom+Function         Bfn.  Coefficient  Atom+Function  
  ----- ------------  ---------------      ----- ------------  ---------------
    18      1.123583   1 C  dyz             113     -1.123597   6 C  dyz       
   116      0.895276   7 H  s               119     -0.895187   8 H  s         
   137      0.895237  14 H  s               140     -0.895246  15 H  s         
    13     -0.820032   1 C  pz              108      0.820036   6 C  pz        
    16      0.657698   1 C  dxz             111      0.657699   6 C  dxz       

 Vector   84  Occ=0.000000D+00  E= 1.633578D+00
              MO Center=  6.9D-06, -1.9D-02,  7.0D-07, r^2= 5.2D+00
   Bfn.  Coefficient  Atom+Function         Bfn.  Coefficient  Atom+Function  
  ----- ------------  ---------------      ----- ------------  ---------------
    50      1.910208   3 C  py               67      1.753659   4 O  s         
    29     -1.069894   2 C  s                86     -1.069933   5 C  s         
    48      0.834301   3 C  s               116     -0.517030   7 H  s         
   119     -0.517200   8 H  s               137     -0.517081  14 H  s         
   140     -0.517144  15 H  s                19      0.512261   1 C  dzz       

 Vector   85  Occ=0.000000D+00  E= 1.640996D+00
              MO Center= -3.7D-05,  2.8D-01, -8.9D-06, r^2= 6.1D+00
   Bfn.  Coefficient  Atom+Function         Bfn.  Coefficient  Atom+Function  
  ----- ------------  ---------------      ----- ------------  ---------------
    29      2.853389   2 C  s                86     -2.853282   5 C  s         
    49     -2.471302   3 C  px               31     -1.503020   2 C  py        
    88      1.503005   5 C  py               10     -1.187819   1 C  s         
   105      1.187746   6 C  s                68      0.630495   4 O  px        
    38     -0.608057   2 C  dzz              95      0.608052   5 C  dzz       

 Vector   86  Occ=0.000000D+00  E= 1.685987D+00
              MO Center= -1.7D-05,  1.5D-01, -5.3D-06, r^2= 6.9D+00
   Bfn.  Coefficient  Atom+Function         Bfn.  Coefficient  Atom+Function  
  ----- ------------  ---------------      ----- ------------  ---------------
    30     -1.059298   2 C  px               87     -1.059300   5 C  px        
    15      0.966174   1 C  dxy             110      0.966182   6 C  dxy       
    29      0.947399   2 C  s                86     -0.947399   5 C  s         
   122     -0.838649   9 H  s               143      0.838658  16 H  s         
    49     -0.696232   3 C  px               11      0.617795   1 C  px        

 Vector   87  Occ=0.000000D+00  E= 1.702799D+00
              MO Center=  5.5D-05, -1.1D-01,  3.6D-05, r^2= 7.2D+00
   Bfn.  Coefficient  Atom+Function         Bfn.  Coefficient  Atom+Function  
  ----- ------------  ---------------      ----- ------------  ---------------
    48      3.168361   3 C  s                67     -2.185976   4 O  s         
    29     -1.750451   2 C  s                86     -1.750398   5 C  s         
   122      0.984219   9 H  s               143      0.984186  16 H  s         
    15     -0.785470   1 C  dxy             110      0.785450   6 C  dxy       
    10      0.692658   1 C  s               105      0.692638   6 C  s         

 Vector   88  Occ=0.000000D+00  E= 1.705497D+00
              MO Center=  1.8D-06,  5.1D-01, -4.1D-05, r^2= 3.9D+00
   Bfn.  Coefficient  Atom+Function         Bfn.  Coefficient  Atom+Function  
  ----- ------------  ---------------      ----- ------------  ---------------
    37      1.070681   2 C  dyz              94      1.070680   5 C  dyz       
    56      0.790474   3 C  dyz              16     -0.627208   1 C  dxz       
   111      0.627207   6 C  dxz             125     -0.628825  10 H  s         
   128      0.629514  11 H  s               131     -0.628849  12 H  s         
   134      0.629488  13 H  s               126      0.299274  10 H  s         

 Vector   89  Occ=0.000000D+00  E= 1.730776D+00
              MO Center=  6.9D-07,  4.6D-02,  2.7D-06, r^2= 3.8D+00
   Bfn.  Coefficient  Atom+Function         Bfn.  Coefficient  Atom+Function  
  ----- ------------  ---------------      ----- ------------  ---------------
    49     -2.692935   3 C  px               29      2.510949   2 C  s         
    86     -2.510906   5 C  s                53     -1.107756   3 C  dxy       
    10     -0.926528   1 C  s               105      0.926505   6 C  s         
    31     -0.775975   2 C  py               88      0.775972   5 C  py        
    68      0.769290   4 O  px              125     -0.415282  10 H  s         

 Vector   90  Occ=0.000000D+00  E= 1.789465D+00
              MO Center= -3.1D-05,  3.8D-01,  2.8D-06, r^2= 5.9D+00
   Bfn.  Coefficient  Atom+Function         Bfn.  Coefficient  Atom+Function  
  ----- ------------  ---------------      ----- ------------  ---------------
    31      0.906279   2 C  py               88     -0.906258   5 C  py        
    49      0.761843   3 C  px              122     -0.695403   9 H  s         
   143      0.695418  16 H  s                38      0.550386   2 C  dzz       
    95     -0.550395   5 C  dzz              29     -0.485708   2 C  s         
    86      0.485574   5 C  s               116      0.485785   7 H  s         

 Vector   91  Occ=0.000000D+00  E= 1.842546D+00
              MO Center= -1.5D-06,  3.8D-01, -1.0D-05, r^2= 5.6D+00
   Bfn.  Coefficient  Atom+Function         Bfn.  Coefficient  Atom+Function  
  ----- ------------  ---------------      ----- ------------  ---------------
    37      0.839300   2 C  dyz              94     -0.839302   5 C  dyz       
    16     -0.711325   1 C  dxz             111     -0.711325   6 C  dxz       
    18      0.653455   1 C  dyz             113     -0.653456   6 C  dyz       
    35     -0.596427   2 C  dxz              92     -0.596427   5 C  dxz       
   125     -0.589817  10 H  s               128      0.589874  11 H  s         

 Vector   92  Occ=0.000000D+00  E= 1.856343D+00
              MO Center=  7.4D-06,  1.1D-01, -4.7D-06, r^2= 5.2D+00
   Bfn.  Coefficient  Atom+Function         Bfn.  Coefficient  Atom+Function  
  ----- ------------  ---------------      ----- ------------  ---------------
    48      1.266459   3 C  s                67     -0.878724   4 O  s         
    15      0.836489   1 C  dxy             110     -0.836487   6 C  dxy       
    50     -0.684956   3 C  py               57     -0.556964   3 C  dzz       
   122     -0.536645   9 H  s               143     -0.536643  16 H  s         
    55      0.459178   3 C  dyy              11      0.371636   1 C  px        

 Vector   93  Occ=0.000000D+00  E= 1.899924D+00
              MO Center=  1.6D-06,  3.2D-01, -2.2D-06, r^2= 2.5D+00
   Bfn.  Coefficient  Atom+Function         Bfn.  Coefficient  Atom+Function  
  ----- ------------  ---------------      ----- ------------  ---------------
    54      1.480876   3 C  dxz              35      0.920701   2 C  dxz       
    92      0.920698   5 C  dxz              37      0.512843   2 C  dyz       
    94     -0.512844   5 C  dyz             125     -0.336834  10 H  s         
   128      0.336885  11 H  s               131      0.336831  12 H  s         
   134     -0.336891  13 H  s               126      0.276064  10 H  s         

 Vector   94  Occ=0.000000D+00  E= 1.924753D+00
              MO Center= -4.5D-07,  2.2D-01,  8.8D-06, r^2= 4.2D+00
   Bfn.  Coefficient  Atom+Function         Bfn.  Coefficient  Atom+Function  
  ----- ------------  ---------------      ----- ------------  ---------------
    35      1.056198   2 C  dxz              92     -1.056199   5 C  dxz       
    56      0.933464   3 C  dyz              51      0.538858   3 C  pz        
    18     -0.510038   1 C  dyz             113     -0.510038   6 C  dyz       
    16      0.473116   1 C  dxz             111     -0.473115   6 C  dxz       
   116     -0.425262   7 H  s               119      0.425196   8 H  s         

 Vector   95  Occ=0.000000D+00  E= 2.003194D+00
              MO Center= -3.3D-06,  2.9D-01, -2.1D-06, r^2= 5.9D+00
   Bfn.  Coefficient  Atom+Function         Bfn.  Coefficient  Atom+Function  
  ----- ------------  ---------------      ----- ------------  ---------------
    30      0.934721   2 C  px               87      0.934709   5 C  px        
    15      0.810297   1 C  dxy             110      0.810296   6 C  dxy       
    53     -0.709570   3 C  dxy              10     -0.680879   1 C  s         
   105      0.680879   6 C  s                34     -0.637756   2 C  dxy       
    91     -0.637745   5 C  dxy             122     -0.512768   9 H  s         

 Vector   96  Occ=0.000000D+00  E= 2.027591D+00
              MO Center=  1.4D-05,  4.0D-01,  7.4D-07, r^2= 3.4D+00
   Bfn.  Coefficient  Atom+Function         Bfn.  Coefficient  Atom+Function  
  ----- ------------  ---------------      ----- ------------  ---------------
    48      4.309103   3 C  s                29     -2.337264   2 C  s         
    86     -2.337274   5 C  s                50      1.114704   3 C  py        
    31      1.026559   2 C  py               88      1.026540   5 C  py        
    57     -1.016467   3 C  dzz              38      0.612453   2 C  dzz       
    95      0.612443   5 C  dzz              30      0.599685   2 C  px        

 Vector   97  Occ=0.000000D+00  E= 2.039845D+00
              MO Center= -6.4D-06,  3.5D-01, -3.0D-06, r^2= 5.0D+00
   Bfn.  Coefficient  Atom+Function         Bfn.  Coefficient  Atom+Function  
  ----- ------------  ---------------      ----- ------------  ---------------
    34      1.036099   2 C  dxy              91     -1.036107   5 C  dxy       
    29     -0.660576   2 C  s                86     -0.660569   5 C  s         
    10      0.618951   1 C  s               105      0.618960   6 C  s         
    30     -0.613976   2 C  px               87      0.613992   5 C  px        
    11     -0.596264   1 C  px              106      0.596270   6 C  px        

 Vector   98  Occ=0.000000D+00  E= 2.219507D+00
              MO Center=  7.7D-07,  3.0D-01, -1.7D-06, r^2= 3.9D+00
   Bfn.  Coefficient  Atom+Function         Bfn.  Coefficient  Atom+Function  
  ----- ------------  ---------------      ----- ------------  ---------------
    49      1.743752   3 C  px               30      1.309906   2 C  px        
    87      1.309906   5 C  px               53      1.243131   3 C  dxy       
    34     -1.040649   2 C  dxy              91     -1.040645   5 C  dxy       
    10     -0.787966   1 C  s               105      0.787966   6 C  s         
    29     -0.629960   2 C  s                86      0.629963   5 C  s         

 Vector   99  Occ=0.000000D+00  E= 2.329058D+00
              MO Center= -7.1D-07,  5.4D-01, -9.3D-06, r^2= 5.5D+00
   Bfn.  Coefficient  Atom+Function         Bfn.  Coefficient  Atom+Function  
  ----- ------------  ---------------      ----- ------------  ---------------
    48      2.253870   3 C  s                29     -1.484785   2 C  s         
    86     -1.484788   5 C  s                67     -1.248585   4 O  s         
    10      1.095105   1 C  s               105      1.095101   6 C  s         
   122     -0.754247   9 H  s               143     -0.754248  16 H  s         
    31      0.716747   2 C  py               88      0.716739   5 C  py        

 Vector  100  Occ=0.000000D+00  E= 2.442652D+00
              MO Center= -4.9D-05,  2.4D-01, -1.3D-05, r^2= 8.1D+00
   Bfn.  Coefficient  Atom+Function         Bfn.  Coefficient  Atom+Function  
  ----- ------------  ---------------      ----- ------------  ---------------
    48      1.155282   3 C  s                10     -0.823551   1 C  s         
   105     -0.823586   6 C  s               116      0.728174   7 H  s         
   119      0.728209   8 H  s               137      0.728209  14 H  s         
   140      0.728210  15 H  s               122      0.706338   9 H  s         
   143      0.706357  16 H  s                30      0.510230   2 C  px        

 Vector  101  Occ=0.000000D+00  E= 2.443487D+00
              MO Center=  5.3D-05, -6.0D-02, -2.8D-06, r^2= 9.8D+00
   Bfn.  Coefficient  Atom+Function         Bfn.  Coefficient  Atom+Function  
  ----- ------------  ---------------      ----- ------------  ---------------
    10      1.711122   1 C  s               105     -1.711096   6 C  s         
    29     -1.027078   2 C  s                86      1.027047   5 C  s         
   122     -0.954419   9 H  s               143      0.954403  16 H  s         
    30     -0.912029   2 C  px               87     -0.912025   5 C  px        
   116     -0.860820   7 H  s               119     -0.860787   8 H  s         

 Vector  102  Occ=0.000000D+00  E= 2.481417D+00
              MO Center= -2.7D-06,  4.6D-01,  7.1D-06, r^2= 6.1D+00
   Bfn.  Coefficient  Atom+Function         Bfn.  Coefficient  Atom+Function  
  ----- ------------  ---------------      ----- ------------  ---------------
    29      1.585892   2 C  s                86     -1.585884   5 C  s         
    10     -0.919656   1 C  s               105      0.919652   6 C  s         
    49     -0.830450   3 C  px              125     -0.740417  10 H  s         
   128     -0.740545  11 H  s               131      0.740558  12 H  s         
   134      0.740409  13 H  s                31     -0.685540   2 C  py        

 Vector  103  Occ=0.000000D+00  E= 2.500418D+00
              MO Center=  7.7D-06, -4.7D-02, -2.4D-06, r^2= 7.9D+00
   Bfn.  Coefficient  Atom+Function         Bfn.  Coefficient  Atom+Function  
  ----- ------------  ---------------      ----- ------------  ---------------
    29      0.946479   2 C  s                86      0.946474   5 C  s         
    10     -0.658234   1 C  s               105     -0.658228   6 C  s         
   116      0.583146   7 H  s               119      0.583300   8 H  s         
   137      0.583236  14 H  s               140      0.583204  15 H  s         
     8      0.540656   1 C  py              103      0.540654   6 C  py        

 Vector  104  Occ=0.000000D+00  E= 2.501815D+00
              MO Center= -1.2D-06,  6.9D-01,  1.9D-05, r^2= 4.5D+00
   Bfn.  Coefficient  Atom+Function         Bfn.  Coefficient  Atom+Function  
  ----- ------------  ---------------      ----- ------------  ---------------
   125      0.709849  10 H  s               128     -0.709823  11 H  s         
   131      0.709711  12 H  s               134     -0.709962  13 H  s         
    28     -0.621370   2 C  pz               85     -0.621370   5 C  pz        
    24      0.532894   2 C  pz               81      0.532894   5 C  pz        
   124     -0.480593  10 H  s               127      0.480600  11 H  s         

 Vector  105  Occ=0.000000D+00  E= 2.537270D+00
              MO Center=  1.2D-05, -4.1D-01, -1.4D-05, r^2= 7.7D+00
   Bfn.  Coefficient  Atom+Function         Bfn.  Coefficient  Atom+Function  
  ----- ------------  ---------------      ----- ------------  ---------------
   116     -0.694191   7 H  s               119      0.694153   8 H  s         
   137     -0.694205  14 H  s               140      0.694132  15 H  s         
     9      0.675535   1 C  pz              104     -0.675532   6 C  pz        
    18      0.582050   1 C  dyz             113     -0.582047   6 C  dyz       
   115      0.576235   7 H  s               118     -0.576207   8 H  s         

 Vector  106  Occ=0.000000D+00  E= 2.543714D+00
              MO Center= -8.8D-06, -1.1D-01, -9.7D-06, r^2= 6.9D+00
   Bfn.  Coefficient  Atom+Function         Bfn.  Coefficient  Atom+Function  
  ----- ------------  ---------------      ----- ------------  ---------------
   116      0.658266   7 H  s               119     -0.658298   8 H  s         
   137     -0.658277  14 H  s               140      0.658294  15 H  s         
    18     -0.553786   1 C  dyz             113     -0.553789   6 C  dyz       
     9     -0.535116   1 C  pz              104     -0.535119   6 C  pz        
   115     -0.525733   7 H  s               118      0.525747   8 H  s         

 Vector  107  Occ=0.000000D+00  E= 2.600040D+00
              MO Center= -1.9D-06,  8.7D-01,  4.9D-06, r^2= 3.5D+00
   Bfn.  Coefficient  Atom+Function         Bfn.  Coefficient  Atom+Function  
  ----- ------------  ---------------      ----- ------------  ---------------
   125     -0.728526  10 H  s               128      0.728473  11 H  s         
   131      0.728506  12 H  s               134     -0.728495  13 H  s         
    28      0.672042   2 C  pz               85     -0.672042   5 C  pz        
    37     -0.662547   2 C  dyz              94      0.662548   5 C  dyz       
   126      0.616537  10 H  s               129     -0.616514  11 H  s         

 Vector  108  Occ=0.000000D+00  E= 2.615170D+00
              MO Center= -2.3D-05,  3.4D-01, -9.0D-06, r^2= 7.1D+00
   Bfn.  Coefficient  Atom+Function         Bfn.  Coefficient  Atom+Function  
  ----- ------------  ---------------      ----- ------------  ---------------
    49     -2.206148   3 C  px               29      2.079298   2 C  s         
    86     -2.079318   5 C  s                30     -0.785548   2 C  px        
    87     -0.785548   5 C  px              125     -0.734024  10 H  s         
   128     -0.733992  11 H  s               131      0.733975  12 H  s         
   134      0.734052  13 H  s                53     -0.717800   3 C  dxy       

 Vector  109  Occ=0.000000D+00  E= 2.694177D+00
              MO Center=  1.8D-05,  3.3D-01, -2.5D-06, r^2= 4.9D+00
   Bfn.  Coefficient  Atom+Function         Bfn.  Coefficient  Atom+Function  
  ----- ------------  ---------------      ----- ------------  ---------------
    29      1.326395   2 C  s                86      1.326342   5 C  s         
    48     -0.818343   3 C  s                10     -0.652401   1 C  s         
    33      0.654015   2 C  dxx              90      0.654005   5 C  dxx       
   105     -0.652388   6 C  s                52      0.649010   3 C  dxx       
    55     -0.570341   3 C  dyy              15      0.548288   1 C  dxy       

 Vector  110  Occ=0.000000D+00  E= 2.727468D+00
              MO Center=  1.1D-06,  6.7D-03,  5.8D-06, r^2= 1.7D+00
   Bfn.  Coefficient  Atom+Function         Bfn.  Coefficient  Atom+Function  
  ----- ------------  ---------------      ----- ------------  ---------------
    47      1.358749   3 C  pz               43     -1.169902   3 C  pz        
    51     -0.707805   3 C  pz               35      0.370620   2 C  dxz       
    92     -0.370619   5 C  dxz              75      0.328577   4 O  dyz       
    56      0.325660   3 C  dyz              37      0.274533   2 C  dyz       
    94      0.274532   5 C  dyz               9     -0.269327   1 C  pz        

 Vector  111  Occ=0.000000D+00  E= 2.926891D+00
              MO Center= -1.9D-06, -7.5D-01,  6.4D-06, r^2= 2.2D+00
   Bfn.  Coefficient  Atom+Function         Bfn.  Coefficient  Atom+Function  
  ----- ------------  ---------------      ----- ------------  ---------------
    48      1.169329   3 C  s                29     -0.920623   2 C  s         
    86     -0.920623   5 C  s                71     -0.713943   4 O  dxx       
    76      0.696869   4 O  dzz              50      0.607820   3 C  py        
     6     -0.422500   1 C  s               101     -0.422502   6 C  s         
    25     -0.321157   2 C  s                27     -0.321867   2 C  py        

 Vector  112  Occ=0.000000D+00  E= 2.974387D+00
              MO Center= -1.9D-06, -1.0D+00,  1.3D-05, r^2= 1.3D+00
   Bfn.  Coefficient  Atom+Function         Bfn.  Coefficient  Atom+Function  
  ----- ------------  ---------------      ----- ------------  ---------------
    73      1.639085   4 O  dxz              54     -0.472218   3 C  dxz       
    37     -0.324423   2 C  dyz              94      0.324425   5 C  dyz       
   124      0.213157  10 H  s               127     -0.213150  11 H  s         
   130     -0.213137  12 H  s               133      0.213173  13 H  s         
   125     -0.177997  10 H  s               128      0.177982  11 H  s         

 Vector  113  Occ=0.000000D+00  E= 2.978992D+00
              MO Center=  3.1D-05,  2.8D-01,  1.1D-06, r^2= 1.5D+00
   Bfn.  Coefficient  Atom+Function         Bfn.  Coefficient  Atom+Function  
  ----- ------------  ---------------      ----- ------------  ---------------
    49      1.409428   3 C  px               41      0.887290   3 C  px        
    45     -0.883679   3 C  px               25      0.534067   2 C  s         
    82     -0.534054   5 C  s                27      0.510957   2 C  py        
    84     -0.510948   5 C  py               26      0.483600   2 C  px        
    83      0.483573   5 C  px               23     -0.456729   2 C  py        

 Vector  114  Occ=0.000000D+00  E= 2.985845D+00
              MO Center= -4.9D-05,  3.0D-01,  3.0D-06, r^2= 1.7D+00
   Bfn.  Coefficient  Atom+Function         Bfn.  Coefficient  Atom+Function  
  ----- ------------  ---------------      ----- ------------  ---------------
    48      2.576008   3 C  s                50      1.479286   3 C  py        
    44      1.301854   3 C  s                55     -1.201766   3 C  dyy       
    57     -1.148297   3 C  dzz              29     -1.066378   2 C  s         
    86     -1.066398   5 C  s                52     -0.911557   3 C  dxx       
    67      0.761412   4 O  s                22     -0.496192   2 C  px        

 Vector  115  Occ=0.000000D+00  E= 2.991340D+00
              MO Center=  5.5D-06,  3.3D-01, -5.7D-06, r^2= 4.5D+00
   Bfn.  Coefficient  Atom+Function         Bfn.  Coefficient  Atom+Function  
  ----- ------------  ---------------      ----- ------------  ---------------
    49     -0.864238   3 C  px               29      0.841211   2 C  s         
    86     -0.841187   5 C  s                31     -0.603470   2 C  py        
    88      0.603467   5 C  py               30      0.486031   2 C  px        
    87      0.486045   5 C  px                8     -0.478590   1 C  py        
    22      0.476562   2 C  px               79      0.476553   5 C  px        

 Vector  116  Occ=0.000000D+00  E= 3.067310D+00
              MO Center=  1.3D-05, -1.1D-05,  1.6D-06, r^2= 3.3D+00
   Bfn.  Coefficient  Atom+Function         Bfn.  Coefficient  Atom+Function  
  ----- ------------  ---------------      ----- ------------  ---------------
    29      1.272945   2 C  s                86      1.272925   5 C  s         
    55     -1.144070   3 C  dyy              44      0.872674   3 C  s         
    10     -0.670702   1 C  s               105     -0.670698   6 C  s         
    48     -0.587266   3 C  s                27      0.494538   2 C  py        
    84      0.494533   5 C  py               31     -0.474927   2 C  py        

 Vector  117  Occ=0.000000D+00  E= 3.194423D+00
              MO Center= -3.0D-07,  6.8D-01, -4.2D-06, r^2= 3.1D+00
   Bfn.  Coefficient  Atom+Function         Bfn.  Coefficient  Atom+Function  
  ----- ------------  ---------------      ----- ------------  ---------------
    28      1.060411   2 C  pz               85     -1.060408   5 C  pz        
    24     -0.786628   2 C  pz               81      0.786626   5 C  pz        
    32     -0.705445   2 C  pz               89      0.705442   5 C  pz        
   124     -0.464388  10 H  s               127      0.464368  11 H  s         
   130      0.464367  12 H  s               133     -0.464385  13 H  s         

 Vector  118  Occ=0.000000D+00  E= 3.205118D+00
              MO Center=  2.1D-05, -3.1D-01,  6.9D-06, r^2= 7.0D+00
   Bfn.  Coefficient  Atom+Function         Bfn.  Coefficient  Atom+Function  
  ----- ------------  ---------------      ----- ------------  ---------------
     9      0.994480   1 C  pz              104      0.994470   6 C  pz        
     5     -0.745159   1 C  pz              100     -0.745151   6 C  pz        
    18     -0.568099   1 C  dyz             113     -0.568096   6 C  dyz       
    13     -0.535083   1 C  pz              108     -0.535076   6 C  pz        
   115     -0.534676   7 H  s               118      0.534678   8 H  s         

 Vector  119  Occ=0.000000D+00  E= 3.229353D+00
              MO Center= -1.7D-05, -2.2D-01,  2.5D-06, r^2= 7.1D+00
   Bfn.  Coefficient  Atom+Function         Bfn.  Coefficient  Atom+Function  
  ----- ------------  ---------------      ----- ------------  ---------------
     9      1.003663   1 C  pz              104     -1.003670   6 C  pz        
     5     -0.745599   1 C  pz              100      0.745605   6 C  pz        
    13     -0.567985   1 C  pz              108      0.567989   6 C  pz        
    18     -0.558621   1 C  dyz             113      0.558625   6 C  dyz       
   115     -0.543206   7 H  s               118      0.543205   8 H  s         

 Vector  120  Occ=0.000000D+00  E= 3.250288D+00
              MO Center=  1.7D-05,  1.7D-01, -3.4D-06, r^2= 7.0D+00
   Bfn.  Coefficient  Atom+Function         Bfn.  Coefficient  Atom+Function  
  ----- ------------  ---------------      ----- ------------  ---------------
    10      1.416389   1 C  s               105      1.416366   6 C  s         
    46     -0.837446   3 C  py               14     -0.609227   1 C  dxx       
   109     -0.609221   6 C  dxx               8     -0.602391   1 C  py        
   103     -0.602388   6 C  py              121      0.580196   9 H  s         
   142      0.580191  16 H  s                17     -0.562722   1 C  dyy       

 Vector  121  Occ=0.000000D+00  E= 3.269529D+00
              MO Center= -7.1D-05, -3.3D-01,  3.5D-06, r^2= 3.4D+00
   Bfn.  Coefficient  Atom+Function         Bfn.  Coefficient  Atom+Function  
  ----- ------------  ---------------      ----- ------------  ---------------
    46      1.522193   3 C  py               55     -1.157630   3 C  dyy       
    42     -0.933259   3 C  py               48      0.741652   3 C  s         
    29     -0.684927   2 C  s                86     -0.684978   5 C  s         
    10      0.674794   1 C  s               105      0.674913   6 C  s         
    44      0.629155   3 C  s                 7     -0.570196   1 C  px        

 Vector  122  Occ=0.000000D+00  E= 3.271744D+00
              MO Center=  4.5D-05,  1.8D-01, -4.0D-06, r^2= 9.4D+00
   Bfn.  Coefficient  Atom+Function         Bfn.  Coefficient  Atom+Function  
  ----- ------------  ---------------      ----- ------------  ---------------
    10      2.336723   1 C  s               105     -2.336731   6 C  s         
    29     -1.178074   2 C  s                86      1.178076   5 C  s         
    49      0.811185   3 C  px                7     -0.766124   1 C  px        
   102     -0.766100   6 C  px              121      0.735627   9 H  s         
   142     -0.735612  16 H  s               122     -0.729371   9 H  s         

 Vector  123  Occ=0.000000D+00  E= 3.311412D+00
              MO Center= -3.0D-06,  4.5D-01, -1.2D-05, r^2= 3.1D+00
   Bfn.  Coefficient  Atom+Function         Bfn.  Coefficient  Atom+Function  
  ----- ------------  ---------------      ----- ------------  ---------------
    32      1.128146   2 C  pz               89      1.128147   5 C  pz        
    28     -0.968354   2 C  pz               85     -0.968357   5 C  pz        
    51     -0.835501   3 C  pz               47      0.725956   3 C  pz        
    24      0.697270   2 C  pz               81      0.697272   5 C  pz        
    75     -0.672101   4 O  dyz              13     -0.502626   1 C  pz        

 Vector  124  Occ=0.000000D+00  E= 3.342224D+00
              MO Center=  9.0D-05, -5.4D-01, -8.8D-06, r^2= 6.7D+00
   Bfn.  Coefficient  Atom+Function         Bfn.  Coefficient  Atom+Function  
  ----- ------------  ---------------      ----- ------------  ---------------
    10      3.159600   1 C  s               105      3.159450   6 C  s         
    29     -1.865588   2 C  s                86     -1.865420   5 C  s         
    19     -1.019069   1 C  dzz             114     -1.019030   6 C  dzz       
    48      0.965272   3 C  s                17     -0.881499   1 C  dyy       
   112     -0.881466   6 C  dyy               6      0.854132   1 C  s         

 Vector  125  Occ=0.000000D+00  E= 3.354441D+00
              MO Center= -9.5D-05, -3.5D-01, -9.5D-06, r^2= 6.6D+00
   Bfn.  Coefficient  Atom+Function         Bfn.  Coefficient  Atom+Function  
  ----- ------------  ---------------      ----- ------------  ---------------
    10      3.148732   1 C  s               105     -3.148883   6 C  s         
    29     -2.674347   2 C  s                86      2.674450   5 C  s         
    19     -0.942423   1 C  dzz             114      0.942467   6 C  dzz       
    17     -0.785630   1 C  dyy             112      0.785670   6 C  dyy       
     6      0.737930   1 C  s               101     -0.737967   6 C  s         

 Vector  126  Occ=0.000000D+00  E= 3.377740D+00
              MO Center=  3.5D-05,  9.2D-01,  1.2D-06, r^2= 3.2D+00
   Bfn.  Coefficient  Atom+Function         Bfn.  Coefficient  Atom+Function  
  ----- ------------  ---------------      ----- ------------  ---------------
    29      4.134651   2 C  s                86      4.134481   5 C  s         
    48     -2.518954   3 C  s                10     -1.674957   1 C  s         
   105     -1.674915   6 C  s                38     -1.068411   2 C  dzz       
    95     -1.068379   5 C  dzz              33     -0.867670   2 C  dxx       
    90     -0.867654   5 C  dxx              36     -0.818396   2 C  dyy       

 Vector  127  Occ=0.000000D+00  E= 3.411160D+00
              MO Center= -2.3D-05,  7.8D-01, -1.1D-06, r^2= 3.9D+00
   Bfn.  Coefficient  Atom+Function         Bfn.  Coefficient  Atom+Function  
  ----- ------------  ---------------      ----- ------------  ---------------
    29      4.994699   2 C  s                86     -4.994854   5 C  s         
    49     -2.793717   3 C  px               38     -1.141383   2 C  dzz       
    95      1.141413   5 C  dzz              36     -1.024788   2 C  dyy       
    93      1.024811   5 C  dyy              30     -0.952239   2 C  px        
    87     -0.952240   5 C  px              125     -0.908351  10 H  s         

 Vector  128  Occ=0.000000D+00  E= 3.454969D+00
              MO Center= -1.3D-07, -6.7D-01,  1.1D-05, r^2= 1.9D+00
   Bfn.  Coefficient  Atom+Function         Bfn.  Coefficient  Atom+Function  
  ----- ------------  ---------------      ----- ------------  ---------------
    75      1.658793   4 O  dyz              56      0.986892   3 C  dyz       
    32      0.527957   2 C  pz               89      0.527956   5 C  pz        
    28     -0.454702   2 C  pz               85     -0.454701   5 C  pz        
    47     -0.371459   3 C  pz               70      0.361346   4 O  pz        
    24      0.315225   2 C  pz               81      0.315224   5 C  pz        

 Vector  129  Occ=0.000000D+00  E= 3.579481D+00
              MO Center=  1.8D-06, -8.5D-01,  9.0D-06, r^2= 1.8D+00
   Bfn.  Coefficient  Atom+Function         Bfn.  Coefficient  Atom+Function  
  ----- ------------  ---------------      ----- ------------  ---------------
    29      1.936076   2 C  s                86     -1.936010   5 C  s         
    72      1.745969   4 O  dxy              53      1.367008   3 C  dxy       
    10     -1.095088   1 C  s               105      1.095061   6 C  s         
    49     -1.025003   3 C  px               33     -0.664705   2 C  dxx       
    90      0.664697   5 C  dxx              68      0.624498   4 O  px        

 Vector  130  Occ=0.000000D+00  E= 3.761090D+00
              MO Center= -1.6D-07, -9.9D-01,  9.0D-06, r^2= 1.4D+00
   Bfn.  Coefficient  Atom+Function         Bfn.  Coefficient  Atom+Function  
  ----- ------------  ---------------      ----- ------------  ---------------
    67      2.375296   4 O  s                55     -1.427151   3 C  dyy       
    69      1.372143   4 O  py               74      1.089331   4 O  dyy       
    46      0.727280   3 C  py               50      0.724510   3 C  py        
    52     -0.703046   3 C  dxx              26     -0.660343   2 C  px        
    83      0.660338   5 C  px               48     -0.634830   3 C  s         

 Vector  131  Occ=0.000000D+00  E= 4.103192D+00
              MO Center=  9.4D-05,  1.9D-01, -1.1D-06, r^2= 2.7D+00
   Bfn.  Coefficient  Atom+Function         Bfn.  Coefficient  Atom+Function  
  ----- ------------  ---------------      ----- ------------  ---------------
    45      2.245119   3 C  px               27      1.352546   2 C  py        
    84     -1.352436   5 C  py               33     -1.128652   2 C  dxx       
    90      1.128541   5 C  dxx              53      1.096478   3 C  dxy       
    41     -0.912628   3 C  px                7     -0.827665   1 C  px        
   102     -0.827592   6 C  px               14      0.654118   1 C  dxx       

 Vector  132  Occ=0.000000D+00  E= 4.121647D+00
              MO Center= -1.0D-04,  1.8D-01, -8.2D-07, r^2= 3.4D+00
   Bfn.  Coefficient  Atom+Function         Bfn.  Coefficient  Atom+Function  
  ----- ------------  ---------------      ----- ------------  ---------------
    52      1.417412   3 C  dxx              27      1.326745   2 C  py        
    84      1.326859   5 C  py               33     -1.280250   2 C  dxx       
    46      1.285687   3 C  py               90     -1.280342   5 C  dxx       
    48     -1.128180   3 C  s                 7     -1.063162   1 C  px        
   102      1.063234   6 C  px               29      0.819355   2 C  s         

 Vector  133  Occ=0.000000D+00  E= 4.191747D+00
              MO Center=  1.3D-05,  6.5D-02,  4.7D-07, r^2= 2.9D+00
   Bfn.  Coefficient  Atom+Function         Bfn.  Coefficient  Atom+Function  
  ----- ------------  ---------------      ----- ------------  ---------------
    46      2.114299   3 C  py               26      1.790864   2 C  px        
    83     -1.790854   5 C  px               34     -1.384419   2 C  dxy       
    91      1.384416   5 C  dxy              48     -1.291557   3 C  s         
    52      1.224635   3 C  dxx              67      0.998827   4 O  s         
     7      0.866451   1 C  px              102     -0.866430   6 C  px        

 Vector  134  Occ=0.000000D+00  E= 4.297470D+00
              MO Center= -1.5D-06,  3.1D-01, -6.6D-07, r^2= 3.2D+00
   Bfn.  Coefficient  Atom+Function         Bfn.  Coefficient  Atom+Function  
  ----- ------------  ---------------      ----- ------------  ---------------
    26      2.110194   2 C  px               83      2.110199   5 C  px        
    45      2.013982   3 C  px               53      1.937426   3 C  dxy       
    34     -1.712544   2 C  dxy              91     -1.712548   5 C  dxy       
    29      1.249865   2 C  s                49     -1.251298   3 C  px        
    86     -1.249876   5 C  s                 7      1.058426   1 C  px        

 Vector  135  Occ=0.000000D+00  E= 4.973943D+00
              MO Center= -9.5D-07, -1.3D+00,  1.0D-05, r^2= 5.4D-01
   Bfn.  Coefficient  Atom+Function         Bfn.  Coefficient  Atom+Function  
  ----- ------------  ---------------      ----- ------------  ---------------
    66      1.494897   4 O  pz               62     -1.269019   4 O  pz        
    70     -0.734467   4 O  pz               51      0.541395   3 C  pz        
    32     -0.330366   2 C  pz               89     -0.330366   5 C  pz        
    56      0.274320   3 C  dyz              47     -0.212502   3 C  pz        
    13      0.136430   1 C  pz              108      0.136430   6 C  pz        

 Vector  136  Occ=0.000000D+00  E= 5.178400D+00
              MO Center= -9.3D-07, -1.3D+00,  1.1D-05, r^2= 6.3D-01
   Bfn.  Coefficient  Atom+Function         Bfn.  Coefficient  Atom+Function  
  ----- ------------  ---------------      ----- ------------  ---------------
    29      1.892517   2 C  s                86     -1.892511   5 C  s         
    64     -1.620025   4 O  px               49     -1.603598   3 C  px        
    60      1.273215   4 O  px               68      1.125841   4 O  px        
    10     -1.026679   1 C  s               105      1.026677   6 C  s         
    31     -0.541097   2 C  py               88      0.541097   5 C  py        

 Vector  137  Occ=0.000000D+00  E= 5.611326D+00
              MO Center= -7.7D-07, -1.3D+00,  1.1D-05, r^2= 7.0D-01
   Bfn.  Coefficient  Atom+Function         Bfn.  Coefficient  Atom+Function  
  ----- ------------  ---------------      ----- ------------  ---------------
    67      2.691713   4 O  s                65      1.932608   4 O  py        
    46      1.556036   3 C  py               48     -1.229609   3 C  s         
    61     -1.141379   4 O  py               55     -1.068785   3 C  dyy       
    63      0.934388   4 O  s                50      0.897104   3 C  py        
    71     -0.831279   4 O  dxx              10     -0.809888   1 C  s         

 Vector  138  Occ=0.000000D+00  E= 6.618734D+00
              MO Center= -6.8D-07, -9.9D-01,  9.9D-06, r^2= 5.9D-01
   Bfn.  Coefficient  Atom+Function         Bfn.  Coefficient  Atom+Function  
  ----- ------------  ---------------      ----- ------------  ---------------
    63      2.113635   4 O  s                74     -1.917990   4 O  dyy       
    67      1.671757   4 O  s                76     -1.442338   4 O  dzz       
    71     -1.398641   4 O  dxx              65     -1.218285   4 O  py        
    46     -1.156922   3 C  py               50      1.103297   3 C  py        
    55      0.770494   3 C  dyy              59     -0.637208   4 O  s         

 Vector  139  Occ=0.000000D+00  E= 2.637609D+01
              MO Center=  1.9D-06, -7.0D-02,  3.9D-06, r^2= 1.5D+00
   Bfn.  Coefficient  Atom+Function         Bfn.  Coefficient  Atom+Function  
  ----- ------------  ---------------      ----- ------------  ---------------
    40      2.282185   3 C  s                39     -1.870053   3 C  s         
    44     -0.998732   3 C  s                 2     -0.812344   1 C  s         
    97     -0.812341   6 C  s                 1      0.667568   1 C  s         
    96      0.667566   6 C  s                52      0.650830   3 C  dxx       
    55      0.598864   3 C  dyy              57      0.557950   3 C  dzz       

 Vector  140  Occ=0.000000D+00  E= 2.644565D+01
              MO Center=  1.3D-05,  1.0D-02, -2.1D-06, r^2= 5.1D+00
   Bfn.  Coefficient  Atom+Function         Bfn.  Coefficient  Atom+Function  
  ----- ------------  ---------------      ----- ------------  ---------------
     2      1.533637   1 C  s                97      1.533626   6 C  s         
     1     -1.257866   1 C  s                96     -1.257856   6 C  s         
    40      0.946984   3 C  s                39     -0.774840   3 C  s         
    21      0.720787   2 C  s                78      0.720791   5 C  s         
     6     -0.667607   1 C  s               101     -0.667602   6 C  s         

 Vector  141  Occ=0.000000D+00  E= 2.646208D+01
              MO Center= -1.5D-05, -1.3D-01, -3.3D-06, r^2= 6.6D+00
   Bfn.  Coefficient  Atom+Function         Bfn.  Coefficient  Atom+Function  
  ----- ------------  ---------------      ----- ------------  ---------------
     2      1.816577   1 C  s                97     -1.816588   6 C  s         
     1     -1.488356   1 C  s                96      1.488365   6 C  s         
    10     -0.976128   1 C  s               105      0.976133   6 C  s         
     6     -0.766047   1 C  s               101      0.766052   6 C  s         
    14      0.509410   1 C  dxx             109     -0.509413   6 C  dxx       

 Vector  142  Occ=0.000000D+00  E= 2.653130D+01
              MO Center=  5.5D-06,  7.3D-01, -3.7D-06, r^2= 1.9D+00
   Bfn.  Coefficient  Atom+Function         Bfn.  Coefficient  Atom+Function  
  ----- ------------  ---------------      ----- ------------  ---------------
    21      1.825613   2 C  s                78     -1.825605   5 C  s         
    20     -1.490602   2 C  s                77      1.490595   5 C  s         
    29     -1.416669   2 C  s                86      1.416665   5 C  s         
    25     -0.722612   2 C  s                82      0.722609   5 C  s         
    49      0.628125   3 C  px               33      0.544156   2 C  dxx       

 Vector  143  Occ=0.000000D+00  E= 2.657118D+01
              MO Center= -4.3D-06,  5.9D-01, -2.9D-06, r^2= 2.2D+00
   Bfn.  Coefficient  Atom+Function         Bfn.  Coefficient  Atom+Function  
  ----- ------------  ---------------      ----- ------------  ---------------
    21      1.670474   2 C  s                78      1.670481   5 C  s         
    20     -1.361195   2 C  s                77     -1.361201   5 C  s         
    29     -1.328353   2 C  s                86     -1.328358   5 C  s         
    48      0.993038   3 C  s                40     -0.753705   3 C  s         
    25     -0.685299   2 C  s                82     -0.685302   5 C  s         

 Vector  144  Occ=0.000000D+00  E= 5.521715D+01
              MO Center= -9.7D-07, -1.3D+00,  1.1D-05, r^2= 7.2D-02
   Bfn.  Coefficient  Atom+Function         Bfn.  Coefficient  Atom+Function  
  ----- ------------  ---------------      ----- ------------  ---------------
    59      2.722665   4 O  s                58     -2.323035   4 O  s         
    63     -1.078744   4 O  s                67     -0.684602   4 O  s         
    74      0.624209   4 O  dyy              76      0.587450   4 O  dzz       
    71      0.583429   4 O  dxx              50     -0.378557   3 C  py        
    48      0.167865   3 C  s                69     -0.159296   4 O  py        


 center of mass
 --------------
 x =  -0.00000003 y =  -0.07491080 z =   0.00000087

 moments of inertia (a.u.)
 ------------------
         200.726398157156          -0.000079940518          -0.000105688782
          -0.000079940518         917.093567384046           0.001055609874
          -0.000105688782           0.001055609874        1073.894381098316

     Multipole analysis of the density
     ---------------------------------

     L   x y z        total         alpha         beta         nuclear
     -   - - -        -----         -----         ----         -------
     0   0 0 0     -0.000000    -24.000000    -24.000000     48.000000

     1   1 0 0      0.000003      0.000002      0.000002      0.000000
     1   0 1 0      1.049089      0.524544      0.524544     -0.000000
     1   0 0 1     -0.000004     -0.000002     -0.000002      0.000000

     2   2 0 0    -27.639665   -287.467843   -287.467843    547.296021
     2   1 1 0      0.000001     -0.000020     -0.000020      0.000041
     2   1 0 1      0.000016     -0.000004     -0.000004      0.000024
     2   0 2 0    -30.551154    -69.630801    -69.630801    108.710448
     2   0 1 1      0.000010      0.000280      0.000280     -0.000549
     2   0 0 2    -27.469426    -24.630847    -24.630847     21.792268

  int_init: cando_txs set to always be  F
                                NWChem TDDFT Module
                                -------------------


    3-pentanone LR-TDDFT, LC-wPBE mu=0.342545, 6-311G* Cartesian, PBE0 geometry


            General Information
            -------------------
           No. of orbitals :     288
            Alpha orbitals :     144
             Beta orbitals :     144
        Alpha frozen cores :       0
         Beta frozen cores :       0
     Alpha frozen virtuals :       0
      Beta frozen virtuals :       0
         Spin multiplicity :       1
    Number of AO functions :     144
        Use of symmetry is : off
      Symmetry adaption is : off
         Schwarz screening :  0.10D-07

              XC Information
              --------------
              Hartree-Fock (Exact) Exchange   1.00          
              LC-wPBE(h)Exchange Functional   1.00          
     Perdew 1991 LDA Correlation Functional   1.00 local    
    PerdewBurkeErnz. Correlation Functional   1.00 non-local
           Alpha           :  0.00
           Beta            :  1.00
           Gamma           :  0.34

             TDDFT Information
             -----------------
          Calculation type : TDDFT             
         Wavefunction type : Restricted singlets
          No. of electrons :      48
           Alpha electrons :      24
            Beta electrons :      24
              No. of roots :      30
          Max subspacesize :   10000
            Max iterations :     100
               Target root :       1
           Target symmetry : none
      Symmetry restriction : off
                 Algorithm : Optimal
        Davidson threshold :  0.10D-03

            Memory Information
            ------------------
          Available GA space size is         163819264 doubles
          Available MA space size is         163838468 doubles
          Length of a trial vector is         2880
          Algorithm : Incore multiple tensor contraction
          Estimated peak GA usage is         120432384 doubles
          Estimated peak MA usage is            633000 doubles

   30 smallest eigenvalue differences (eV) 
--------------------------------------------------------
  No. Spin  Occ  Vir  Irrep   E(Occ)    E(Vir)   E(Diff)
--------------------------------------------------------
    1    1   24   25 a        -0.348     0.077    11.557
    2    1   24   26 a        -0.348     0.117    12.666
    3    1   24   27 a        -0.348     0.150    13.544
    4    1   24   28 a        -0.348     0.162    13.891
    5    1   24   29 a        -0.348     0.169    14.078
    6    1   23   25 a        -0.448     0.077    14.268
    7    1   22   25 a        -0.449     0.077    14.306
    8    1   21   25 a        -0.462     0.077    14.664
    9    1   20   25 a        -0.465     0.077    14.732
   10    1   24   30 a        -0.348     0.199    14.895
   11    1   24   31 a        -0.348     0.200    14.899
   12    1   24   32 a        -0.348     0.204    15.022
   13    1   19   25 a        -0.476     0.077    15.028
   14    1   18   25 a        -0.486     0.077    15.311
   15    1   23   26 a        -0.448     0.117    15.376
   16    1   22   26 a        -0.449     0.117    15.415
   17    1   24   33 a        -0.348     0.224    15.557
   18    1   21   26 a        -0.462     0.117    15.773
   19    1   24   34 a        -0.348     0.233    15.815
   20    1   24   35 a        -0.348     0.234    15.835
   21    1   20   26 a        -0.465     0.117    15.841
   22    1   19   26 a        -0.476     0.117    16.136
   23    1   17   25 a        -0.517     0.077    16.160
   24    1   23   27 a        -0.448     0.150    16.255
   25    1   22   27 a        -0.449     0.150    16.293
   26    1   18   26 a        -0.486     0.117    16.419
   27    1   23   28 a        -0.448     0.162    16.602
   28    1   22   28 a        -0.449     0.162    16.641
   29    1   21   27 a        -0.462     0.150    16.651
   30    1   20   27 a        -0.465     0.150    16.720
--------------------------------------------------------

  Entering Davidson iterations
  Restricted singlet excited states

  Iter   NTrls   NConv    DeltaV     DeltaE      Time   
  ----  ------  ------  ---------  ---------  --------- 
    1     30       0     0.50E+00   0.10+100      173.7
    2     90       0     0.21E+00   0.26E-01      303.6
    3    150       0     0.47E-01   0.18E-01      298.8
    4    210       0     0.61E-01   0.13E-01      307.7
    5    269       1     0.71E-01   0.66E-02      295.5
    6    326       9     0.19E-01   0.26E-02      279.2
    7    368      21     0.42E-02   0.18E-03      215.9
    8    386      25     0.93E-03   0.11E-04      105.2
    9    396      27     0.21E-03   0.35E-06       70.6
   10    402      30     0.72E-04   0.12E-07       53.2
  ----  ------  ------  ---------  ---------  --------- 
  Convergence criterion met

  Ground state a        -271.634022657723 a.u.

  ----------------------------------------------------------------------------
  Root   1 singlet a              0.166863862 a.u.                4.5406 eV 
  ----------------------------------------------------------------------------
     Transition Moments    X  0.00000   Y  0.00000   Z -0.00000
     Transition Moments   XX -0.00002  XY  0.00000  XZ  0.47569
     Transition Moments   YY -0.00001  YZ -0.00000  ZZ  0.00002
     Dipole Oscillator Strength                    0.0000000000
     Electric Quadrupole                           0.0000000056
     Magnetic Dipole                               0.0000021190
     Total Oscillator Strength                     0.0000021246

     Occ.   21  a   ---  Virt.   25  a    0.06598 X
     Occ.   24  a   ---  Virt.   25  a    0.98011 X
     Occ.   24  a   ---  Virt.   29  a    0.15845 X
     Occ.   24  a   ---  Virt.   34  a   -0.06464 X
  ----------------------------------------------------------------------------
  Root   2 singlet a              0.292591665 a.u.                7.9618 eV 
  ----------------------------------------------------------------------------
     Transition Moments    X -0.20657   Y  0.00000   Z -0.00001
     Transition Moments   XX  0.00001  XY -0.37037  XZ -0.00000
     Transition Moments   YY  0.00000  YZ -0.00002  ZZ  0.00000
     Dipole Oscillator Strength                    0.0083238533
     Electric Quadrupole                           0.0000000183
     Magnetic Dipole                               0.0000001717
     Total Oscillator Strength                     0.0083240433

     Occ.   24  a   ---  Virt.   26  a   -0.97880 X
     Occ.   24  a   ---  Virt.   30  a   -0.11602 X
     Occ.   24  a   ---  Virt.   36  a    0.06381 X
     Occ.   24  a   ---  Virt.   39  a    0.09676 X
  ----------------------------------------------------------------------------
  Root   3 singlet a              0.321026588 a.u.                8.7356 eV 
  ----------------------------------------------------------------------------
     Transition Moments    X  0.00000   Y  0.00000   Z -0.00000
     Transition Moments   XX -0.00013  XY  0.00001  XZ -0.14987
     Transition Moments   YY  0.00005  YZ -0.00002  ZZ  0.00000
     Dipole Oscillator Strength                    0.0000000000
     Electric Quadrupole                           0.0000000040
     Magnetic Dipole                               0.0000000279
     Total Oscillator Strength                     0.0000000319

     Occ.   11  a   ---  Virt.   25  a    0.09216 X
     Occ.   13  a   ---  Virt.   25  a   -0.20135 X
     Occ.   19  a   ---  Virt.   25  a    0.07792 X
     Occ.   21  a   ---  Virt.   25  a   -0.95335 X
     Occ.   21  a   ---  Virt.   29  a   -0.09271 X
     Occ.   24  a   ---  Virt.   25  a    0.08730 X
     Occ.   24  a   ---  Virt.   29  a   -0.10971 X
  ----------------------------------------------------------------------------
  Root   4 singlet a              0.324038927 a.u.                8.8176 eV 
  ----------------------------------------------------------------------------
     Transition Moments    X -0.00001   Y  0.00003   Z  0.11457
     Transition Moments   XX  0.00006  XY -0.00012  XZ -0.00000
     Transition Moments   YY -0.00001  YZ  1.27994  ZZ  0.00001
     Dipole Oscillator Strength                    0.0028355351
     Electric Quadrupole                           0.0000002968
     Magnetic Dipole                               0.0000040321
     Total Oscillator Strength                     0.0028398641

     Occ.   16  a   ---  Virt.   25  a    0.35371 X
     Occ.   16  a   ---  Virt.   29  a    0.06491 X
     Occ.   17  a   ---  Virt.   25  a    0.22870 X
     Occ.   20  a   ---  Virt.   25  a   -0.89167 X
     Occ.   20  a   ---  Virt.   29  a   -0.10498 X
  ----------------------------------------------------------------------------
  Root   5 singlet a              0.330491472 a.u.                8.9931 eV 
  ----------------------------------------------------------------------------
     Transition Moments    X -0.40668   Y  0.00001   Z -0.00002
     Transition Moments   XX  0.00001  XY -1.45332  XZ  0.00000
     Transition Moments   YY -0.00000  YZ -0.00016  ZZ  0.00000
     Dipole Oscillator Strength                    0.0364394776
     Electric Quadrupole                           0.0000004060
     Magnetic Dipole                               0.0000000002
     Total Oscillator Strength                     0.0364398839

     Occ.   15  a   ---  Virt.   25  a   -0.14517 X
     Occ.   23  a   ---  Virt.   25  a    0.97310 X
     Occ.   23  a   ---  Virt.   29  a    0.05018 X
     Occ.   24  a   ---  Virt.   28  a    0.13392 X
  ----------------------------------------------------------------------------
  Root   6 singlet a              0.331959851 a.u.                9.0331 eV 
  ----------------------------------------------------------------------------
     Transition Moments    X  0.00000   Y  0.59348   Z -0.00001
     Transition Moments   XX  1.05910  XY  0.00001  XZ  0.00004
     Transition Moments   YY -0.65189  YZ -0.00004  ZZ  0.28243
     Dipole Oscillator Strength                    0.0779479777
     Electric Quadrupole                           0.0000001430
     Magnetic Dipole                               0.0000000000
     Total Oscillator Strength                     0.0779481206

     Occ.   18  a   ---  Virt.   25  a   -0.07596 X
     Occ.   20  a   ---  Virt.   26  a    0.05779 X
     Occ.   22  a   ---  Virt.   25  a   -0.76705 X
     Occ.   22  a   ---  Virt.   29  a   -0.06484 X
     Occ.   24  a   ---  Virt.   27  a   -0.59525 X
     Occ.   24  a   ---  Virt.   33  a   -0.12614 X
     Occ.   24  a   ---  Virt.   40  a    0.07893 X
     Occ.   24  a   ---  Virt.   48  a   -0.07130 X
  ----------------------------------------------------------------------------
  Root   7 singlet a              0.342858503 a.u.                9.3297 eV 
  ----------------------------------------------------------------------------
     Transition Moments    X  0.00001   Y  0.00004   Z  0.00000
     Transition Moments   XX -0.00001  XY -0.00001  XZ -0.84586
     Transition Moments   YY  0.00004  YZ  0.00001  ZZ -0.00001
     Dipole Oscillator Strength                    0.0000000003
     Electric Quadrupole                           0.0000001536
     Magnetic Dipole                               0.0000000922
     Total Oscillator Strength                     0.0000002461

     Occ.   19  a   ---  Virt.   25  a    0.12066 X
     Occ.   21  a   ---  Virt.   25  a   -0.11107 X
     Occ.   21  a   ---  Virt.   29  a   -0.05722 X
     Occ.   24  a   ---  Virt.   25  a   -0.15317 X
     Occ.   24  a   ---  Virt.   29  a    0.96415 X
     Occ.   24  a   ---  Virt.   51  a    0.05505 X
  ----------------------------------------------------------------------------
  Root   8 singlet a              0.345796703 a.u.                9.4096 eV 
  ----------------------------------------------------------------------------
     Transition Moments    X  0.32780   Y -0.00001   Z -0.00000
     Transition Moments   XX  0.00001  XY -0.40933  XZ -0.00002
     Transition Moments   YY -0.00001  YZ -0.00001  ZZ -0.00001
     Dipole Oscillator Strength                    0.0247715259
     Electric Quadrupole                           0.0000000369
     Magnetic Dipole                               0.0000000460
     Total Oscillator Strength                     0.0247716088

     Occ.   21  a   ---  Virt.   26  a    0.05760 X
     Occ.   23  a   ---  Virt.   25  a   -0.14448 X
     Occ.   24  a   ---  Virt.   28  a    0.94048 X
     Occ.   24  a   ---  Virt.   30  a    0.24237 X
     Occ.   24  a   ---  Virt.   36  a   -0.08844 X
     Occ.   24  a   ---  Virt.   37  a   -0.06387 X
     Occ.   24  a   ---  Virt.   39  a   -0.08822 X
  ----------------------------------------------------------------------------
  Root   9 singlet a              0.349922567 a.u.                9.5219 eV 
  ----------------------------------------------------------------------------
     Transition Moments    X  0.00001   Y  0.52241   Z -0.00000
     Transition Moments   XX -0.72508  XY -0.00000  XZ  0.00002
     Transition Moments   YY  1.01567  YZ  0.00004  ZZ  1.03258
     Dipole Oscillator Strength                    0.0636658902
     Electric Quadrupole                           0.0000002327
     Magnetic Dipole                               0.0000000000
     Total Oscillator Strength                     0.0636661229

     Occ.   14  a   ---  Virt.   25  a    0.05829 X
     Occ.   17  a   ---  Virt.   26  a   -0.06391 X
     Occ.   18  a   ---  Virt.   25  a    0.15196 X
     Occ.   20  a   ---  Virt.   26  a   -0.05587 X
     Occ.   21  a   ---  Virt.   27  a   -0.08288 X
     Occ.   22  a   ---  Virt.   25  a   -0.59717 X
     Occ.   24  a   ---  Virt.   27  a    0.73328 X
     Occ.   24  a   ---  Virt.   31  a   -0.15100 X
     Occ.   24  a   ---  Virt.   33  a    0.13244 X
     Occ.   24  a   ---  Virt.   40  a    0.07983 X
  ----------------------------------------------------------------------------
  Root  10 singlet a              0.356476446 a.u.                9.7002 eV 
  ----------------------------------------------------------------------------
     Transition Moments    X -0.00000   Y -0.00001   Z  0.00000
     Transition Moments   XX -0.00005  XY  0.00001  XZ -0.40740
     Transition Moments   YY  0.00005  YZ -0.00000  ZZ -0.00008
     Dipole Oscillator Strength                    0.0000000000
     Electric Quadrupole                           0.0000000400
     Magnetic Dipole                               0.0000000538
     Total Oscillator Strength                     0.0000000939

     Occ.   13  a   ---  Virt.   25  a    0.22413 X
     Occ.   19  a   ---  Virt.   25  a    0.95718 X
     Occ.   19  a   ---  Virt.   29  a    0.06904 X
     Occ.   20  a   ---  Virt.   35  a   -0.05091 X
     Occ.   24  a   ---  Virt.   29  a   -0.12074 X
  ----------------------------------------------------------------------------
  Root  11 singlet a              0.374707654 a.u.               10.1963 eV 
  ----------------------------------------------------------------------------
     Transition Moments    X  0.00001   Y  0.00002   Z -0.00000
     Transition Moments   XX  0.00003  XY  0.00003  XZ  0.51705
     Transition Moments   YY  0.00013  YZ -0.00006  ZZ -0.00014
     Dipole Oscillator Strength                    0.0000000001
     Electric Quadrupole                           0.0000000749
     Magnetic Dipole                               0.0000006246
     Total Oscillator Strength                     0.0000006997

     Occ.   15  a   ---  Virt.   26  a   -0.12853 X
     Occ.   15  a   ---  Virt.   28  a    0.10250 X
     Occ.   18  a   ---  Virt.   27  a   -0.19722 X
     Occ.   22  a   ---  Virt.   27  a    0.35597 X
     Occ.   22  a   ---  Virt.   33  a    0.08850 X
     Occ.   23  a   ---  Virt.   26  a    0.88485 X
  ----------------------------------------------------------------------------
  Root  12 singlet a              0.380293179 a.u.               10.3483 eV 
  ----------------------------------------------------------------------------
     Transition Moments    X -0.00000   Y -0.17120   Z -0.00002
     Transition Moments   XX -1.14703  XY -0.00001  XZ -0.00002
     Transition Moments   YY  1.43497  YZ -0.00030  ZZ -0.50749
     Dipole Oscillator Strength                    0.0074307011
     Electric Quadrupole                           0.0000005296
     Magnetic Dipole                               0.0000000000
     Total Oscillator Strength                     0.0074312307

     Occ.   18  a   ---  Virt.   25  a    0.92635 X
     Occ.   18  a   ---  Virt.   29  a    0.05614 X
     Occ.   24  a   ---  Virt.   27  a   -0.11891 X
     Occ.   24  a   ---  Virt.   31  a    0.29603 X
     Occ.   24  a   ---  Virt.   40  a   -0.06759 X
  ----------------------------------------------------------------------------
  Root  13 singlet a              0.380635942 a.u.               10.3576 eV 
  ----------------------------------------------------------------------------
     Transition Moments    X -0.00000   Y -0.00001   Z  0.16465
     Transition Moments   XX -0.00022  XY  0.00000  XZ  0.00001
     Transition Moments   YY  0.00018  YZ  3.49564  ZZ -0.00000
     Dipole Oscillator Strength                    0.0068790833
     Electric Quadrupole                           0.0000035885
     Magnetic Dipole                               0.0000063670
     Total Oscillator Strength                     0.0068890388

     Occ.   14  a   ---  Virt.   26  a    0.08317 X
     Occ.   14  a   ---  Virt.   28  a   -0.05828 X
     Occ.   15  a   ---  Virt.   31  a    0.05137 X
     Occ.   18  a   ---  Virt.   26  a    0.12290 X
     Occ.   18  a   ---  Virt.   28  a    0.09207 X
     Occ.   22  a   ---  Virt.   26  a   -0.84619 X
     Occ.   23  a   ---  Virt.   27  a   -0.47165 X
     Occ.   23  a   ---  Virt.   33  a   -0.08232 X
  ----------------------------------------------------------------------------
  Root  14 singlet a              0.385694322 a.u.               10.4953 eV 
  ----------------------------------------------------------------------------
     Transition Moments    X -0.00003   Y -0.00006   Z  0.20177
     Transition Moments   XX  0.00021  XY -0.00003  XZ -0.00001
     Transition Moments   YY -0.00005  YZ  0.34521  ZZ -0.00011
     Dipole Oscillator Strength                    0.0104682248
     Electric Quadrupole                           0.0000000364
     Magnetic Dipole                               0.0000000355
     Total Oscillator Strength                     0.0104682967

     Occ.   12  a   ---  Virt.   29  a    0.05921 X
     Occ.   16  a   ---  Virt.   25  a    0.21877 X
     Occ.   17  a   ---  Virt.   25  a   -0.14022 X
     Occ.   20  a   ---  Virt.   25  a    0.05030 X
     Occ.   20  a   ---  Virt.   29  a    0.05541 X
     Occ.   21  a   ---  Virt.   32  a    0.05137 X
     Occ.   24  a   ---  Virt.   32  a   -0.95027 X
     Occ.   24  a   ---  Virt.   41  a   -0.07714 X
  ----------------------------------------------------------------------------
  Root  15 singlet a              0.386770233 a.u.               10.5246 eV 
  ----------------------------------------------------------------------------
     Transition Moments    X  0.00001   Y  0.45833   Z  0.00002
     Transition Moments   XX -2.08443  XY  0.00000  XZ  0.00003
     Transition Moments   YY  0.62184  YZ -0.00003  ZZ  0.75284
     Dipole Oscillator Strength                    0.0541654925
     Electric Quadrupole                           0.0000007903
     Magnetic Dipole                               0.0000000000
     Total Oscillator Strength                     0.0541662828

     Occ.   17  a   ---  Virt.   26  a   -0.05104 X
     Occ.   18  a   ---  Virt.   25  a   -0.24731 X
     Occ.   19  a   ---  Virt.   27  a   -0.15851 X
     Occ.   20  a   ---  Virt.   26  a   -0.23829 X
     Occ.   21  a   ---  Virt.   27  a   -0.14074 X
     Occ.   22  a   ---  Virt.   25  a   -0.05572 X
     Occ.   24  a   ---  Virt.   27  a    0.11090 X
     Occ.   24  a   ---  Virt.   31  a    0.88818 X
     Occ.   24  a   ---  Virt.   33  a    0.08456 X
  ----------------------------------------------------------------------------
  Root  16 singlet a              0.390785872 a.u.               10.6338 eV 
  ----------------------------------------------------------------------------
     Transition Moments    X -0.00001   Y  0.00000   Z -0.26443
     Transition Moments   XX  0.00003  XY  0.00005  XZ  0.00000
     Transition Moments   YY -0.00001  YZ -0.26081  ZZ -0.00001
     Dipole Oscillator Strength                    0.0182172248
     Electric Quadrupole                           0.0000000216
     Magnetic Dipole                               0.0000024624
     Total Oscillator Strength                     0.0182197089

     Occ.   10  a   ---  Virt.   25  a    0.06576 X
     Occ.   12  a   ---  Virt.   25  a    0.08372 X
     Occ.   16  a   ---  Virt.   25  a    0.83051 X
     Occ.   16  a   ---  Virt.   29  a    0.11176 X
     Occ.   17  a   ---  Virt.   25  a   -0.37063 X
     Occ.   19  a   ---  Virt.   35  a   -0.05741 X
     Occ.   20  a   ---  Virt.   25  a    0.25029 X
     Occ.   20  a   ---  Virt.   29  a   -0.05693 X
     Occ.   24  a   ---  Virt.   32  a    0.25852 X
  ----------------------------------------------------------------------------
  Root  17 singlet a              0.394622167 a.u.               10.7382 eV 
  ----------------------------------------------------------------------------
     Transition Moments    X  0.79947   Y -0.00000   Z  0.00002
     Transition Moments   XX  0.00004  XY  1.72091  XZ  0.00001
     Transition Moments   YY -0.00001  YZ  0.00007  ZZ -0.00001
     Dipole Oscillator Strength                    0.1681505234
     Electric Quadrupole                           0.0000009691
     Magnetic Dipole                               0.0000007023
     Total Oscillator Strength                     0.1681521948

     Occ.   17  a   ---  Virt.   27  a    0.16183 X
     Occ.   19  a   ---  Virt.   26  a   -0.06579 X
     Occ.   19  a   ---  Virt.   28  a    0.07604 X
     Occ.   20  a   ---  Virt.   27  a    0.05278 X
     Occ.   21  a   ---  Virt.   26  a    0.39926 X
     Occ.   21  a   ---  Virt.   28  a    0.08200 X
     Occ.   23  a   ---  Virt.   29  a    0.07114 X
     Occ.   24  a   ---  Virt.   26  a   -0.06087 X
     Occ.   24  a   ---  Virt.   28  a   -0.22006 X
     Occ.   24  a   ---  Virt.   30  a    0.81303 X
     Occ.   24  a   ---  Virt.   36  a    0.16840 X
     Occ.   24  a   ---  Virt.   37  a   -0.14840 X
     Occ.   24  a   ---  Virt.   39  a    0.05886 X
     Occ.   24  a   ---  Virt.   45  a    0.08035 X
  ----------------------------------------------------------------------------
  Root  18 singlet a              0.400245512 a.u.               10.8912 eV 
  ----------------------------------------------------------------------------
     Transition Moments    X -0.00002   Y -0.16880   Z -0.00000
     Transition Moments   XX -4.20347  XY  0.00005  XZ -0.00007
     Transition Moments   YY  1.64486  YZ -0.00008  ZZ  1.47147
     Dipole Oscillator Strength                    0.0076028940
     Electric Quadrupole                           0.0000037807
     Magnetic Dipole                               0.0000000000
     Total Oscillator Strength                     0.0076066747

     Occ.   16  a   ---  Virt.   26  a   -0.05992 X
     Occ.   17  a   ---  Virt.   26  a    0.05735 X
     Occ.   17  a   ---  Virt.   28  a   -0.07419 X
     Occ.   18  a   ---  Virt.   25  a    0.07503 X
     Occ.   19  a   ---  Virt.   27  a   -0.43636 X
     Occ.   20  a   ---  Virt.   26  a   -0.81782 X
     Occ.   20  a   ---  Virt.   28  a   -0.11164 X
     Occ.   24  a   ---  Virt.   27  a   -0.12684 X
     Occ.   24  a   ---  Virt.   31  a   -0.26037 X
  ----------------------------------------------------------------------------
  Root  19 singlet a              0.400430425 a.u.               10.8963 eV 
  ----------------------------------------------------------------------------
     Transition Moments    X  0.05260   Y -0.00004   Z -0.00000
     Transition Moments   XX -0.00116  XY -0.25247  XZ  0.00002
     Transition Moments   YY  0.00045  YZ  0.00001  ZZ  0.00040
     Dipole Oscillator Strength                    0.0007386555
     Electric Quadrupole                           0.0000000218
     Magnetic Dipole                               0.0000011476
     Total Oscillator Strength                     0.0007398248

     Occ.   16  a   ---  Virt.   27  a    0.10310 X
     Occ.   17  a   ---  Virt.   27  a   -0.16182 X
     Occ.   17  a   ---  Virt.   33  a   -0.07442 X
     Occ.   19  a   ---  Virt.   26  a    0.48737 X
     Occ.   20  a   ---  Virt.   27  a    0.26415 X
     Occ.   20  a   ---  Virt.   31  a    0.05799 X
     Occ.   21  a   ---  Virt.   26  a   -0.69846 X
     Occ.   24  a   ---  Virt.   26  a   -0.05050 X
     Occ.   24  a   ---  Virt.   30  a    0.35928 X
     Occ.   24  a   ---  Virt.   39  a    0.07124 X
  ----------------------------------------------------------------------------
  Root  20 singlet a              0.404163976 a.u.               10.9979 eV 
  ----------------------------------------------------------------------------
     Transition Moments    X  0.36244   Y -0.00000   Z -0.00000
     Transition Moments   XX -0.00005  XY  3.00001  XZ  0.00001
     Transition Moments   YY  0.00001  YZ -0.00007  ZZ  0.00001
     Dipole Oscillator Strength                    0.0353951805
     Electric Quadrupole                           0.0000031641
     Magnetic Dipole                               0.0000164100
     Total Oscillator Strength                     0.0354147546

     Occ.   13  a   ---  Virt.   28  a   -0.05375 X
     Occ.   16  a   ---  Virt.   27  a    0.07642 X
     Occ.   17  a   ---  Virt.   27  a    0.21653 X
     Occ.   19  a   ---  Virt.   26  a    0.58684 X
     Occ.   19  a   ---  Virt.   28  a    0.20394 X
     Occ.   20  a   ---  Virt.   27  a    0.49129 X
     Occ.   21  a   ---  Virt.   26  a    0.44194 X
     Occ.   21  a   ---  Virt.   28  a    0.13875 X
     Occ.   24  a   ---  Virt.   26  a    0.06326 X
     Occ.   24  a   ---  Virt.   30  a   -0.20413 X
     Occ.   24  a   ---  Virt.   36  a   -0.07892 X
     Occ.   24  a   ---  Virt.   37  a    0.15769 X
     Occ.   24  a   ---  Virt.   39  a   -0.08077 X
  ----------------------------------------------------------------------------
  Root  21 singlet a              0.407520134 a.u.               11.0892 eV 
  ----------------------------------------------------------------------------
     Transition Moments    X -0.00003   Y  0.00001   Z -0.11595
     Transition Moments   XX  0.00000  XY -0.00028  XZ  0.00000
     Transition Moments   YY  0.00000  YZ -0.28904  ZZ -0.00000
     Dipole Oscillator Strength                    0.0036522678
     Electric Quadrupole                           0.0000000301
     Magnetic Dipole                               0.0000001471
     Total Oscillator Strength                     0.0036524451

     Occ.   10  a   ---  Virt.   25  a   -0.05453 X
     Occ.   12  a   ---  Virt.   25  a    0.06254 X
     Occ.   16  a   ---  Virt.   25  a    0.25760 X
     Occ.   16  a   ---  Virt.   29  a    0.05074 X
     Occ.   17  a   ---  Virt.   25  a    0.78537 X
     Occ.   18  a   ---  Virt.   26  a    0.07679 X
     Occ.   20  a   ---  Virt.   25  a    0.32362 X
     Occ.   20  a   ---  Virt.   29  a   -0.05340 X
     Occ.   21  a   ---  Virt.   32  a   -0.08017 X
     Occ.   21  a   ---  Virt.   35  a   -0.06739 X
     Occ.   24  a   ---  Virt.   32  a   -0.06457 X
     Occ.   24  a   ---  Virt.   35  a    0.40126 X
  ----------------------------------------------------------------------------
  Root  22 singlet a              0.411812627 a.u.               11.2060 eV 
  ----------------------------------------------------------------------------
     Transition Moments    X  0.00001   Y -0.00002   Z  0.01542
     Transition Moments   XX -0.00011  XY -0.00009  XZ -0.00001
     Transition Moments   YY  0.00002  YZ  1.32847  ZZ -0.00001
     Dipole Oscillator Strength                    0.0000652790
     Electric Quadrupole                           0.0000006563
     Magnetic Dipole                               0.0000009183
     Total Oscillator Strength                     0.0000668536

     Occ.   13  a   ---  Virt.   32  a    0.05083 X
     Occ.   16  a   ---  Virt.   25  a    0.13213 X
     Occ.   17  a   ---  Virt.   25  a    0.36324 X
     Occ.   20  a   ---  Virt.   25  a    0.13052 X
     Occ.   24  a   ---  Virt.   35  a   -0.89652 X
     Occ.   24  a   ---  Virt.   41  a   -0.07329 X
     Occ.   24  a   ---  Virt.   46  a   -0.05895 X
  ----------------------------------------------------------------------------
  Root  23 singlet a              0.412541824 a.u.               11.2258 eV 
  ----------------------------------------------------------------------------
     Transition Moments    X -0.00001   Y -0.00002   Z  0.00001
     Transition Moments   XX -0.00007  XY -0.00007  XZ -0.48904
     Transition Moments   YY  0.00002  YZ  0.00001  ZZ  0.00001
     Dipole Oscillator Strength                    0.0000000002
     Electric Quadrupole                           0.0000000894
     Magnetic Dipole                               0.0000000460
     Total Oscillator Strength                     0.0000001356

     Occ.   13  a   ---  Virt.   29  a   -0.06061 X
     Occ.   21  a   ---  Virt.   29  a   -0.08259 X
     Occ.   23  a   ---  Virt.   28  a   -0.07892 X
     Occ.   24  a   ---  Virt.   25  a   -0.05692 X
     Occ.   24  a   ---  Virt.   34  a   -0.97996 X
     Occ.   24  a   ---  Virt.   47  a   -0.05352 X
  ----------------------------------------------------------------------------
  Root  24 singlet a              0.413254240 a.u.               11.2452 eV 
  ----------------------------------------------------------------------------
     Transition Moments    X  0.00001   Y -0.00003   Z -0.86237
     Transition Moments   XX -0.00016  XY  0.00007  XZ  0.00005
     Transition Moments   YY -0.00004  YZ -0.06645  ZZ  0.00005
     Dipole Oscillator Strength                    0.2048848302
     Electric Quadrupole                           0.0000000017
     Magnetic Dipole                               0.0000000732
     Total Oscillator Strength                     0.2048849051

     Occ.   15  a   ---  Virt.   27  a   -0.13382 X
     Occ.   17  a   ---  Virt.   25  a   -0.10497 X
     Occ.   18  a   ---  Virt.   26  a    0.56416 X
     Occ.   18  a   ---  Virt.   28  a    0.23871 X
     Occ.   20  a   ---  Virt.   29  a   -0.06143 X
     Occ.   22  a   ---  Virt.   26  a    0.39623 X
     Occ.   22  a   ---  Virt.   28  a   -0.35690 X
     Occ.   22  a   ---  Virt.   30  a    0.07586 X
     Occ.   22  a   ---  Virt.   39  a   -0.05042 X
     Occ.   23  a   ---  Virt.   27  a   -0.51275 X
     Occ.   23  a   ---  Virt.   31  a    0.12638 X
  ----------------------------------------------------------------------------
  Root  25 singlet a              0.418019773 a.u.               11.3749 eV 
  ----------------------------------------------------------------------------
     Transition Moments    X  0.00001   Y  0.00001   Z -0.00001
     Transition Moments   XX  0.00006  XY -0.00005  XZ -5.72894
     Transition Moments   YY -0.00006  YZ -0.00001  ZZ  0.00001
     Dipole Oscillator Strength                    0.0000000001
     Electric Quadrupole                           0.0000127664
     Magnetic Dipole                               0.0000320018
     Total Oscillator Strength                     0.0000447683

     Occ.   14  a   ---  Virt.   27  a   -0.06315 X
     Occ.   15  a   ---  Virt.   26  a   -0.23955 X
     Occ.   18  a   ---  Virt.   27  a    0.28237 X
     Occ.   18  a   ---  Virt.   31  a   -0.15369 X
     Occ.   18  a   ---  Virt.   33  a   -0.06074 X
     Occ.   19  a   ---  Virt.   29  a   -0.08502 X
     Occ.   21  a   ---  Virt.   29  a    0.06845 X
     Occ.   22  a   ---  Virt.   27  a   -0.34530 X
     Occ.   22  a   ---  Virt.   31  a    0.21355 X
     Occ.   22  a   ---  Virt.   33  a    0.08279 X
     Occ.   23  a   ---  Virt.   26  a    0.15471 X
     Occ.   23  a   ---  Virt.   28  a   -0.77224 X
     Occ.   24  a   ---  Virt.   34  a    0.09704 X
  ----------------------------------------------------------------------------
  Root  26 singlet a              0.423085737 a.u.               11.5128 eV 
  ----------------------------------------------------------------------------
     Transition Moments    X -0.00001   Y -0.78128   Z  0.00002
     Transition Moments   XX -6.58754  XY -0.00005  XZ -0.00006
     Transition Moments   YY -0.45913  YZ -0.00002  ZZ -0.22362
     Dipole Oscillator Strength                    0.1721668326
     Electric Quadrupole                           0.0000052503
     Magnetic Dipole                               0.0000000000
     Total Oscillator Strength                     0.1721720829

     Occ.   13  a   ---  Virt.   27  a    0.06986 X
     Occ.   17  a   ---  Virt.   26  a   -0.36874 X
     Occ.   17  a   ---  Virt.   28  a   -0.17275 X
     Occ.   17  a   ---  Virt.   30  a    0.05093 X
     Occ.   19  a   ---  Virt.   27  a   -0.08221 X
     Occ.   19  a   ---  Virt.   31  a    0.09985 X
     Occ.   19  a   ---  Virt.   33  a    0.05193 X
     Occ.   20  a   ---  Virt.   26  a    0.10553 X
     Occ.   20  a   ---  Virt.   28  a   -0.23617 X
     Occ.   21  a   ---  Virt.   27  a   -0.51536 X
     Occ.   22  a   ---  Virt.   25  a    0.05705 X
     Occ.   22  a   ---  Virt.   29  a    0.05598 X
     Occ.   23  a   ---  Virt.   35  a    0.05494 X
     Occ.   24  a   ---  Virt.   27  a    0.05193 X
     Occ.   24  a   ---  Virt.   33  a   -0.65901 X
     Occ.   24  a   ---  Virt.   40  a   -0.06882 X
  ----------------------------------------------------------------------------
  Root  27 singlet a              0.426236272 a.u.               11.5985 eV 
  ----------------------------------------------------------------------------
     Transition Moments    X -0.00002   Y  0.32744   Z -0.00001
     Transition Moments   XX  2.11524  XY -0.00007  XZ  0.00008
     Transition Moments   YY  0.35530  YZ -0.00005  ZZ -0.06256
     Dipole Oscillator Strength                    0.0304666285
     Electric Quadrupole                           0.0000005508
     Magnetic Dipole                               0.0000000000
     Total Oscillator Strength                     0.0304671794

     Occ.   16  a   ---  Virt.   26  a   -0.09318 X
     Occ.   17  a   ---  Virt.   26  a    0.37890 X
     Occ.   17  a   ---  Virt.   28  a    0.10847 X
     Occ.   18  a   ---  Virt.   25  a   -0.05741 X
     Occ.   19  a   ---  Virt.   31  a   -0.05144 X
     Occ.   20  a   ---  Virt.   28  a    0.07683 X
     Occ.   21  a   ---  Virt.   27  a    0.50879 X
     Occ.   21  a   ---  Virt.   33  a    0.10283 X
     Occ.   24  a   ---  Virt.   27  a    0.21851 X
     Occ.   24  a   ---  Virt.   31  a    0.11708 X
     Occ.   24  a   ---  Virt.   33  a   -0.68177 X
     Occ.   24  a   ---  Virt.   38  a   -0.06062 X
     Occ.   24  a   ---  Virt.   44  a   -0.06655 X
  ----------------------------------------------------------------------------
  Root  28 singlet a              0.430255999 a.u.               11.7079 eV 
  ----------------------------------------------------------------------------
     Transition Moments    X -0.21307   Y  0.00001   Z -0.00002
     Transition Moments   XX  0.00004  XY -0.83335  XZ -0.00003
     Transition Moments   YY  0.00001  YZ  0.00010  ZZ -0.00000
     Dipole Oscillator Strength                    0.0130218579
     Electric Quadrupole                           0.0000002946
     Magnetic Dipole                               0.0000026567
     Total Oscillator Strength                     0.0130248091

     Occ.   15  a   ---  Virt.   25  a   -0.29409 X
     Occ.   19  a   ---  Virt.   28  a   -0.08679 X
     Occ.   20  a   ---  Virt.   38  a   -0.05355 X
     Occ.   22  a   ---  Virt.   32  a   -0.09880 X
     Occ.   23  a   ---  Virt.   29  a   -0.27506 X
     Occ.   24  a   ---  Virt.   26  a   -0.07731 X
     Occ.   24  a   ---  Virt.   28  a   -0.13295 X
     Occ.   24  a   ---  Virt.   30  a    0.14501 X
     Occ.   24  a   ---  Virt.   36  a   -0.85693 X
     Occ.   24  a   ---  Virt.   37  a   -0.09912 X
     Occ.   24  a   ---  Virt.   43  a    0.06860 X
  ----------------------------------------------------------------------------
  Root  29 singlet a              0.433220680 a.u.               11.7885 eV 
  ----------------------------------------------------------------------------
     Transition Moments    X -0.51104   Y -0.00001   Z  0.00003
     Transition Moments   XX -0.00007  XY  3.98091  XZ  0.00005
     Transition Moments   YY -0.00000  YZ  0.00004  ZZ -0.00000
     Dipole Oscillator Strength                    0.0754282439
     Electric Quadrupole                           0.0000068616
     Magnetic Dipole                               0.0000123203
     Total Oscillator Strength                     0.0754474257

     Occ.   15  a   ---  Virt.   25  a   -0.31798 X
     Occ.   15  a   ---  Virt.   29  a   -0.10706 X
     Occ.   15  a   ---  Virt.   34  a    0.07880 X
     Occ.   18  a   ---  Virt.   32  a   -0.16369 X
     Occ.   19  a   ---  Virt.   28  a    0.07855 X
     Occ.   21  a   ---  Virt.   28  a   -0.14740 X
     Occ.   22  a   ---  Virt.   32  a    0.28788 X
     Occ.   23  a   ---  Virt.   25  a   -0.08572 X
     Occ.   23  a   ---  Virt.   29  a    0.72029 X
     Occ.   24  a   ---  Virt.   30  a   -0.11773 X
     Occ.   24  a   ---  Virt.   36  a   -0.14795 X
     Occ.   24  a   ---  Virt.   37  a   -0.38886 X
  ----------------------------------------------------------------------------
  Root  30 singlet a              0.435570368 a.u.               11.8525 eV 
  ----------------------------------------------------------------------------
     Transition Moments    X  0.04297   Y -0.00001   Z -0.00001
     Transition Moments   XX -0.00002  XY -2.19876  XZ -0.00005
     Transition Moments   YY  0.00000  YZ -0.00006  ZZ  0.00000
     Dipole Oscillator Strength                    0.0005360412
     Electric Quadrupole                           0.0000021275
     Magnetic Dipole                               0.0000035647
     Total Oscillator Strength                     0.0005417334

     Occ.   15  a   ---  Virt.   25  a   -0.85729 X
     Occ.   18  a   ---  Virt.   35  a   -0.05545 X
     Occ.   22  a   ---  Virt.   32  a   -0.08528 X
     Occ.   23  a   ---  Virt.   25  a   -0.11302 X
     Occ.   23  a   ---  Virt.   29  a   -0.28199 X
     Occ.   24  a   ---  Virt.   36  a    0.37820 X

              Target root =      1
          Target symmetry = none
      Ground state energy =   -271.634022657723
        Excitation energy =      0.166863862274
     Excited state energy =   -271.467158795450

  stored tddft:energy   -271.46715879544962     

 Task  times  cpu:     2210.6s     wall:     2210.6s
 Summary of allocated global arrays
-----------------------------------
  No active global arrays


MA_summarize_allocated_blocks: starting scan ...
MA_summarize_allocated_blocks: scan completed: 0 heap blocks, 0 stack blocks
MA usage statistics:

	allocation statistics:
					      heap	     stack
					      ----	     -----
	current number of blocks	         0	         0
	maximum number of blocks	        17	        60
	current total bytes		         0	         0
	maximum total bytes		  21345488	  23707752
	maximum total K-bytes		     21346	     23708
	maximum total M-bytes		        22	        24


                                NWChem Input Module
                                -------------------




                                     CITATION
                                     --------
                Please cite the following reference when publishing
                           results obtained with NWChem:

          E. Apra, E. J. Bylaska, W. A. de Jong, N. Govind, K. Kowalski,
       T. P. Straatsma, M. Valiev, H. J. J. van Dam, Y. Alexeev, J. Anchell,
       V. Anisimov, F. W. Aquino, R. Atta-Fynn, J. Autschbach, N. P. Bauman,
     J. C. Becca, D. E. Bernholdt, K. Bhaskaran-Nair, S. Bogatko, P. Borowski,
         J. Boschen, J. Brabec, A. Bruner, E. Cauet, Y. Chen, G. N. Chuev,
      C. J. Cramer, J. Daily, M. J. O. Deegan, T. H. Dunning Jr., M. Dupuis,
   K. G. Dyall, G. I. Fann, S. A. Fischer, A. Fonari, H. Fruchtl, L. Gagliardi,
      J. Garza, N. Gawande, S. Ghosh, K. Glaesemann, A. W. Gotz, J. Hammond,
       V. Helms, E. D. Hermes, K. Hirao, S. Hirata, M. Jacquelin, L. Jensen,
   B. G. Johnson, H. Jonsson, R. A. Kendall, M. Klemm, R. Kobayashi, V. Konkov,
      S. Krishnamoorthy, M. Krishnan, Z. Lin, R. D. Lins, R. J. Littlefield,
      A. J. Logsdail, K. Lopata, W. Ma, A. V. Marenich, J. Martin del Campo,
   D. Mejia-Rodriguez, J. E. Moore, J. M. Mullin, T. Nakajima, D. R. Nascimento,
    J. A. Nichols, P. J. Nichols, J. Nieplocha, A. Otero-de-la-Roza, B. Palmer,
    A. Panyala, T. Pirojsirikul, B. Peng, R. Peverati, J. Pittner, L. Pollack,
   R. M. Richard, P. Sadayappan, G. C. Schatz, W. A. Shelton, D. W. Silverstein,
   D. M. A. Smith, T. A. Soares, D. Song, M. Swart, H. L. Taylor, G. S. Thomas,
            V. Tipparaju, D. G. Truhlar, K. Tsemekhman, T. Van Voorhis,
      A. Vazquez-Mayagoitia, P. Verma, O. Villa, A. Vishnu, K. D. Vogiatzis,
        D. Wang, J. H. Weare, M. J. Williamson, T. L. Windus, K. Wolinski,
        A. T. Wong, Q. Wu, C. Yang, Q. Yu, M. Zacharias, Z. Zhang, Y. Zhao,
                                and R. J. Harrison
                        "NWChem: Past, present, and future
                         J. Chem. Phys. 152, 184102 (2020)
                               doi:10.1063/5.0004997

                                      AUTHORS
                                      -------
  E. Apra, E. J. Bylaska, N. Govind, K. Kowalski, M. Valiev, D. Mejia-Rodriguez,
       A. Kunitsa, N. P. Bauman, A. Panyala, W. A. de Jong, T. P. Straatsma,
   H. J. J. van Dam, D. Wang, T. L. Windus, J. Hammond, J. Autschbach, A. Woods,
    K. Bhaskaran-Nair, J. Brabec, K. Lopata, S. A. Fischer, S. Krishnamoorthy,
     M. Jacquelin, W. Ma, M. Klemm, O. Villa, Y. Chen, V. Anisimov, F. Aquino,
     S. Hirata, M. T. Hackler, E. Hermes, L. Jensen, J. E. Moore, J. C. Becca,
      V. Konjkov, T. Risthaus, M. Malagoli, A. Marenich, A. Otero-de-la-Roza,
        J. Mullin, P. Nichols, R. Peverati, J. Pittner, Y. Zhao, P.-D. Fan,
        A. Fonari, M. J. Williamson, R. J. Harrison, J. R. Rehr, M. Dupuis,
     D. Silverstein, D. M. A. Smith, J. Nieplocha, V. Tipparaju, M. Krishnan,
     B. E. Van Kuiken, A. Vazquez-Mayagoitia, M. Swart, Q. Wu, T. Van Voorhis,
     A. A. Auer, M. Nooijen, L. D. Crosby, E. Brown, G. Cisneros, G. I. Fann,
   H. Fruchtl, J. Garza, K. Hirao, R. A. Kendall, J. A. Nichols, K. Tsemekhman,
    K. Wolinski, J. Anchell, D. E. Bernholdt, P. Borowski, T. Clark, D. Clerc,
   H. Dachsel, M. J. O. Deegan, K. Dyall, D. Elwood, E. Glendening, M. Gutowski,
   A. C. Hess, J. Jaffe, B. G. Johnson, J. Ju, R. Kobayashi, R. Kutteh, Z. Lin,
   R. Littlefield, X. Long, B. Meng, T. Nakajima, S. Niu, L. Pollack, M. Rosing,
   K. Glaesemann, G. Sandrone, M. Stave, H. Taylor, G. Thomas, J. H. van Lenthe,
                               A. T. Wong, Z. Zhang.

 Total times  cpu:     2210.6s     wall:     2210.6s
