15
PBE0/6-311G* optimized
C      2.59661615     0.78357392    -0.00427955
C      1.12871835     0.51770835    -0.00443414
C      0.18560303     1.47603653    -0.07276103
N     -1.15777911     1.19884163    -0.07066459
H     -1.83958320     1.93672061    -0.12409529
C     -1.67969450    -0.07856202     0.00228947
O     -2.86455426    -0.31070016     0.00379161
N     -0.69919777    -1.04471170     0.07239895
H     -1.02917451    -1.99728967     0.12857841
C      0.68898068    -0.87471807     0.07493661
O      1.42593461    -1.83398067     0.13962871
H      3.06412895     0.38815535     0.90179816
H      3.08326798     0.28341514    -0.84622795
H      2.80996679     1.85306302    -0.06629510
H      0.43631226     2.53001592    -0.13382790
