15
CACTUS 3D  https://cactus.nci.nih.gov/chemical/structure/Cc1c%5BnH%5Dc%28%3DO%29%5BnH%5Dc1%3DO/sdf?get3d=true
C      2.61660000     0.81670000     0.00100000
C      1.13890000     0.52120000     0.00130000
C      0.23980000     1.52860000    -0.00060000
N     -1.09830000     1.24260000    -0.00080000
H     -1.74430000     1.96620000    -0.00220000
C     -1.52650000    -0.03290000     0.00050000
O     -2.72010000    -0.26450000    -0.00000000
N     -0.65210000    -1.05620000     0.00200000
H     -0.97780000    -1.96990000     0.00230000
C      0.67480000    -0.81630000    -0.00230000
O      1.46660000    -1.74150000    -0.00090000
H      2.97270000     0.88980000     1.02850000
H      3.14750000     0.01430000    -0.51140000
H      2.79850000     1.75970000    -0.51450000
H      0.57520000     2.55520000    -0.00170000
