13
CACTUS 3D  https://cactus.nci.nih.gov/chemical/structure/Nc1cc%5BnH%5Dc%28%3DO%29n1/sdf?get3d=true
N      2.41280000    -0.84860000     0.00070000
C      1.17600000    -0.24640000     0.00090000
C      1.07190000     1.15980000    -0.00010000
C     -0.15780000     1.72650000    -0.00040000
N     -1.26050000     0.92600000     0.00040000
H     -2.14530000     1.32350000     0.00020000
C     -1.12840000    -0.41310000     0.00090000
O     -2.12650000    -1.11450000     0.00080000
N      0.07430000    -0.98540000    -0.00350000
H      3.21660000    -0.30560000    -0.00010000
H      2.48120000    -1.81610000     0.00550000
H      1.95940000     1.77530000    -0.00040000
H     -0.26350000     2.80140000    -0.00080000
