15
PBE0/6-311G* optimized
N      1.71688847     1.48544637    -0.19055742
C      0.52538769     0.78290089    -0.09252783
C     -0.71683262     1.40770890     0.00044748
C     -1.89505609     0.66860988     0.03836686
C     -1.85262035    -0.71605468    -0.01815276
C     -0.61837334    -1.35689391    -0.10879151
C      0.55390398    -0.62131450    -0.14480697
O      1.79799244    -1.18346546    -0.22137442
H      1.71639991     2.38870943     0.25413292
H      2.53284188     0.94033445     0.03820194
H     -0.75528166     2.49382634     0.03550394
H     -2.84737328     1.18466303     0.10990945
H     -2.76544482    -1.30169871     0.00920677
H     -0.56748572    -2.44382318    -0.14844900
H      1.71725006    -2.13948850    -0.23698359
