15
CACTUS 3D  https://cactus.nci.nih.gov/chemical/structure/Nc1ccccc1O/sdf?get3d=true
N      1.70890000     1.41270000     0.01040000
C      0.50100000     0.70560000     0.00680000
C     -0.70550000     1.39010000    -0.01140000
C     -1.89710000     0.68960000    -0.01480000
C     -1.89010000    -0.69290000    -0.00020000
C     -0.69130000    -1.38190000     0.01790000
C      0.50710000    -0.68750000     0.01570000
O      1.68700000    -1.36390000     0.03340000
H      1.70320000     2.38260000     0.00020000
H      2.55170000     0.93280000     0.02710000
H     -0.71380000     2.47000000    -0.02240000
H     -2.83580000     1.22350000    -0.02860000
H     -2.82350000    -1.23610000    -0.00260000
H     -0.68950000    -2.46180000     0.02930000
H      2.03400000    -1.57240000    -0.84470000
