 argument  1 = tddft.nw



============================== echo of input deck ==============================
echo
start c2h6_td
title "C2H6 LR-TDDFT, LC-wPBE mu=0.431186, 6-311G* Cartesian, PBE0 geometry"
scratch_dir /Users/bldrdge1/Downloads/repos/PlasMol/jobs/final/Step_1/c2h6
permanent_dir /Users/bldrdge1/Downloads/repos/PlasMol/jobs/final/Step_1/c2h6
memory total 2500 mb
charge 0

geometry units angstroms noautosym noautoz
  C      0.76057757     0.00006426     0.00000000
  C     -0.76057760    -0.00006426     0.00000000
  H      1.16206159    -0.50855973     0.88109402
  H      1.16206150    -0.50855990    -0.88109396
  H      1.16229712     1.01730180    -0.00000006
  H     -1.16206158     0.50855973     0.88109403
  H     -1.16206149     0.50855990    -0.88109397
  H     -1.16229711    -1.01730180    -0.00000006
end

basis cartesian
  * library 6-311G*
end

dft
  xc xwpbe 1.00 cpbe96 1.0 hfexch 1.00
  cam 0.431186 cam_alpha 0.00 cam_beta 1.00
  mult 1
  grid fine
  iterations 100
  convergence energy 1.0e-7
end

tddft
  nroots 16
  notriplet
end

task tddft energy
================================================================================


                                         
                                         


             Northwest Computational Chemistry Package (NWChem) 7.2.3
             --------------------------------------------------------


                    Environmental Molecular Sciences Laboratory
                       Pacific Northwest National Laboratory
                                Richland, WA 99352

                              Copyright (c) 1994-2022
                       Pacific Northwest National Laboratory
                            Battelle Memorial Institute

             NWChem is an open-source computational chemistry package
                        distributed under the terms of the
                      Educational Community License (ECL) 2.0
             A copy of the license is included with this distribution
                              in the LICENSE.TXT file

                                  ACKNOWLEDGMENT
                                  --------------

            This software and its documentation were developed at the
            EMSL at Pacific Northwest National Laboratory, a multiprogram
            national laboratory, operated for the U.S. Department of Energy
            by Battelle under Contract Number DE-AC05-76RL01830. Support
            for this work was provided by the Department of Energy Office
            of Biological and Environmental Research, Office of Basic
            Energy Sciences, and the Office of Advanced Scientific Computing.


           Job information
           ---------------

    hostname        = CAS-X1HWX6T0HY
    program         = /opt/homebrew/bin/nwchem
    date            = Thu Sep 24 09:47:37 2026

    compiled        = Thu_Dec_26_16:10:57_2024
    source          = /private/tmp/nwchem-20241226-24138-dbs3bh/nwchem-7.2.3
    nwchem branch   = 7.2.3
    nwchem revision = d690e065
    ga revision     = 5.8.0
    use scalapack   = T
    input           = tddft.nw
    prefix          = c2h6_td.
    data base       = /Users/bldrdge1/Downloads/repos/PlasMol/jobs/final/Step_1/c2h6/c2h6_td.db
    status          = startup
    nproc           =        1
    time left       =     -1s



           Memory information
           ------------------

    heap     =   81919996 doubles =    625.0 Mbytes
    stack    =   81920001 doubles =    625.0 Mbytes
    global   =  163840000 doubles =   1250.0 Mbytes (distinct from heap & stack)
    total    =  327679997 doubles =   2500.0 Mbytes
    verify   = yes
    hardfail = no 


           Directory information
           ---------------------

  0 permanent = /Users/bldrdge1/Downloads/repos/PlasMol/jobs/final/Step_1/c2h6
  0 scratch   = /Users/bldrdge1/Downloads/repos/PlasMol/jobs/final/Step_1/c2h6




                                NWChem Input Module
                                -------------------


       C2H6 LR-TDDFT, LC-wPBE mu=0.431186, 6-311G* Cartesian, PBE0 geometry
       --------------------------------------------------------------------

 Scaling coordinates for geometry "geometry" by  1.889725989
 (inverse scale =  0.529177249)



                             Geometry "geometry" -> ""
                             -------------------------

 Output coordinates in angstroms (scale by  1.889725989 to convert to a.u.)

  No.       Tag          Charge          X              Y              Z
 ---- ---------------- ---------- -------------- -------------- --------------
    1 C                    6.0000     0.76057758     0.00006426     0.00000000
    2 C                    6.0000    -0.76057759    -0.00006426     0.00000000
    3 H                    1.0000     1.16206160    -0.50855973     0.88109402
    4 H                    1.0000     1.16206151    -0.50855990    -0.88109396
    5 H                    1.0000     1.16229713     1.01730180    -0.00000006
    6 H                    1.0000    -1.16206157     0.50855973     0.88109403
    7 H                    1.0000    -1.16206148     0.50855990    -0.88109397
    8 H                    1.0000    -1.16229710    -1.01730180    -0.00000006

      Atomic Mass 
      ----------- 

      C                 12.000000
      H                  1.007825


 Effective nuclear repulsion energy (a.u.)      42.2668014729

            Nuclear Dipole moment (a.u.) 
            ----------------------------
        X                 Y               Z
 ---------------- ---------------- ----------------
     0.0000000000     0.0000000000    -0.0000000000


            XYZ format geometry
            -------------------
     8
 geometry
 C                     0.76057758     0.00006426     0.00000000
 C                    -0.76057759    -0.00006426     0.00000000
 H                     1.16206160    -0.50855973     0.88109402
 H                     1.16206151    -0.50855990    -0.88109396
 H                     1.16229713     1.01730180    -0.00000006
 H                    -1.16206157     0.50855973     0.88109403
 H                    -1.16206148     0.50855990    -0.88109397
 H                    -1.16229710    -1.01730180    -0.00000006

 ==============================================================================
                                internuclear distances
 ------------------------------------------------------------------------------
       center one      |      center two      | atomic units |  angstroms
 ------------------------------------------------------------------------------
    2 C                |   1 C                |     2.87457  |     1.52116
    3 H                |   1 C                |     2.06682  |     1.09372
    4 H                |   1 C                |     2.06682  |     1.09372
    5 H                |   1 C                |     2.06677  |     1.09369
    6 H                |   2 C                |     2.06682  |     1.09372
    7 H                |   2 C                |     2.06682  |     1.09372
    8 H                |   2 C                |     2.06677  |     1.09369
 ------------------------------------------------------------------------------
                         number of included internuclear distances:          7
 ==============================================================================



 ==============================================================================
                                 internuclear angles
 ------------------------------------------------------------------------------
        center 1       |       center 2       |       center 3       |  degrees
 ------------------------------------------------------------------------------
    2 C                |   1 C                |   3 H                |   111.53
    2 C                |   1 C                |   4 H                |   111.53
    2 C                |   1 C                |   5 H                |   111.55
    3 H                |   1 C                |   4 H                |   107.34
    3 H                |   1 C                |   5 H                |   107.32
    4 H                |   1 C                |   5 H                |   107.32
    1 C                |   2 C                |   6 H                |   111.53
    1 C                |   2 C                |   7 H                |   111.53
    1 C                |   2 C                |   8 H                |   111.55
    6 H                |   2 C                |   7 H                |   107.34
    6 H                |   2 C                |   8 H                |   107.32
    7 H                |   2 C                |   8 H                |   107.32
 ------------------------------------------------------------------------------
                            number of included internuclear angles:         12
 ==============================================================================



  library name resolved from: .nwchemrc
  library file name is: </opt/homebrew/Cellar/nwchem/7.2.3_1/share/nwchem/libraries/>
  


 Summary of "ao basis" -> "" (cartesian)
 ------------------------------------------------------------------------------
       Tag                 Description            Shells   Functions and Types
 ---------------- ------------------------------  ------  ---------------------
 *                          6-311G*                   on all atoms 


  pbe96 is a nonlocal functional; adding pw91lda local functional. 

                                 NWChem DFT Module
                                 -----------------


       C2H6 LR-TDDFT, LC-wPBE mu=0.431186, 6-311G* Cartesian, PBE0 geometry


                      Basis "ao basis" -> "ao basis" (cartesian)
                      -----
  C (Carbon)
  ----------
            Exponent  Coefficients 
       -------------- ---------------------------------------------------------
  1 S  4.56324000E+03  0.001967
  1 S  6.82024000E+02  0.015231
  1 S  1.54973000E+02  0.076127
  1 S  4.44553000E+01  0.260801
  1 S  1.30290000E+01  0.616462
  1 S  1.82773000E+00  0.221006

  2 S  2.09642000E+01  0.114660
  2 S  4.80331000E+00  0.919999
  2 S  1.45933000E+00 -0.003031

  3 P  2.09642000E+01  0.040249
  3 P  4.80331000E+00  0.237594
  3 P  1.45933000E+00  0.815854

  4 S  4.83456000E-01  1.000000

  5 P  4.83456000E-01  1.000000

  6 S  1.45585000E-01  1.000000

  7 P  1.45585000E-01  1.000000

  8 D  6.26000000E-01  1.000000

  H (Hydrogen)
  ------------
            Exponent  Coefficients 
       -------------- ---------------------------------------------------------
  1 S  3.38650000E+01  0.025494
  1 S  5.09479000E+00  0.190373
  1 S  1.15879000E+00  0.852161

  2 S  3.25840000E-01  1.000000

  3 S  1.02741000E-01  1.000000



 Summary of "ao basis" -> "ao basis" (cartesian)
 ------------------------------------------------------------------------------
       Tag                 Description            Shells   Functions and Types
 ---------------- ------------------------------  ------  ---------------------
 C                          6-311G*                  8       19   4s3p1d
 H                          6-311G*                  3        3   3s




 Summary of "ao basis" -> "ao basis" (cartesian)
 ------------------------------------------------------------------------------
       Tag                 Description            Shells   Functions and Types
 ---------------- ------------------------------  ------  ---------------------
 C                          6-311G*                  8       19   4s3p1d
 H                          6-311G*                  3        3   3s


  int_init: cando_txs set to always be  F
  Caching 1-el integrals 

            General Information
            -------------------
          SCF calculation type: DFT
          Wavefunction type:  closed shell.
          No. of atoms     :     8
          No. of electrons :    18
           Alpha electrons :     9
            Beta electrons :     9
          Charge           :     0
          Spin multiplicity:     1
          Use of symmetry is: off; symmetry adaption is: off
          Maximum number of iterations: 100
          AO basis - number of functions:    56
                     number of shells:    34
          Convergence on energy requested:  1.00D-07
          Convergence on density requested:  1.00D-05
          Convergence on gradient requested:  5.00D-04

              XC Information
              --------------
                     Hartree-Fock (Exact) Exchange  1.000          
                     LC-wPBE(h)Exchange Functional  1.000          
            Perdew 1991 LDA Correlation Functional  1.000 local    
           PerdewBurkeErnz. Correlation Functional  1.000 non-local

           Range-Separation Parameters        
           ---------------------------
           Alpha           :  0.00
           Beta            :  1.00
           Gamma           :  0.43
           Short-Range HF  :     F

             Grid Information
             ----------------
          Grid used for XC integration:  fine      
          Radial quadrature: Mura-Knowles        
          Angular quadrature: Lebedev. 
          Tag              B.-S. Rad. Rad. Pts. Rad. Cut. Ang. Pts.
          ---              ---------- --------- --------- ---------
          C                   0.70       70           8.0       590
          H                   0.35       60          10.0       590
          Grid pruning is: on 
          Number of quadrature shells:   500
          Spatial weights used:  Erf1

          Convergence Information
          -----------------------
          Convergence aids based upon iterative change in 
          total energy or number of iterations. 
          Levelshifting, if invoked, occurs when the 
          HOMO/LUMO gap drops below (HL_TOL):  1.00D-02
          DIIS, if invoked, will attempt to extrapolate 
          using up to (NFOCK): 10 stored Fock matrices.

                    Damping( 0%)  Levelshifting(0.5)       DIIS
                  --------------- ------------------- ---------------
          dE  on:    start            ASAP                start   
          dE off:    2 iters        100 iters           100 iters 


      Screening Tolerance Information
      -------------------------------
          Density screening/tol_rho:  1.00D-10
          AO Gaussian exp screening on grid/accAOfunc:  16
          CD Gaussian exp screening on grid/accCDfunc:  20
          XC Gaussian exp screening on grid/accXCfunc:  20
          Schwarz screening/accCoul:  1.00D-08

  
  CAM type calculations without CDFIT are
  only available with the direct option.
  Forcing Direct SCF
  

      Superposition of Atomic Density Guess
      -------------------------------------

 Sum of atomic energies:         -78.33596109

      Non-variational initial energy
      ------------------------------

 Total energy =     -79.704124
 1-e energy   =    -186.644235
 2-e energy   =      64.673310
 HOMO         =      -0.424830
 LUMO         =       0.084856

  WARNING: movecs_in_org=atomic not equal to movecs_in=/Users/bldrdge1/Downloads/repos/PlasMol/jobs/final/Step_1/c2h6/c2h6_td.movecs
   Time after variat. SCF:      0.1
   Time prior to 1st pass:      0.1

 Grid_pts file          = /Users/bldrdge1/Downloads/repos/PlasMol/jobs/final/Step_1/c2h6/c2h6_td.gridpts.0
 Record size in doubles =  12289        No. of grid_pts per rec  =   3070
 Max. records in memory =    107        Max. recs in file   =    833014


           Memory utilization after 1st SCF pass: 
           Heap Space remaining (MW):       80.60            80604324
          Stack Space remaining (MW):       81.92            81919476

   convergence    iter        energy       DeltaE   RMS-Dens  Diis-err    time
 ---------------- ----- ----------------- --------- --------- ---------  ------
 d= 0,ls=0.0,diis     1    -79.7740252558 -1.22D+02  4.26D-03  3.19D-01     1.0
 d= 0,ls=0.0,diis     2    -79.7942716531 -2.02D-02  8.35D-04  5.17D-03     1.9
 d= 0,ls=0.0,diis     3    -79.7949406522 -6.69D-04  3.30D-04  1.30D-03     2.8
 d= 0,ls=0.0,diis     4    -79.7950896024 -1.49D-04  8.45D-05  3.51D-05     3.7
 d= 0,ls=0.0,diis     5    -79.7950956668 -6.06D-06  8.44D-06  2.53D-07     4.5
 d= 0,ls=0.0,diis     6    -79.7950957034 -3.66D-08  1.60D-06  2.75D-09     5.5


         Total DFT energy =      -79.795095703417
      One electron energy =     -189.384370794066
           Coulomb energy =       80.361785214941
    Exchange-Corr. energy =      -13.039311597188
 Nuclear repulsion energy =       42.266801472897

 Numeric. integr. density =       17.999999591360

     Total iterative time =      5.4s



                       DFT Final Molecular Orbital Analysis
                       ------------------------------------

 Vector    1  Occ=2.000000D+00  E=-1.011142D+01
              MO Center=  6.1D-06,  5.2D-10,  1.2D-11, r^2= 6.1D-01
   Bfn.  Coefficient  Atom+Function         Bfn.  Coefficient  Atom+Function  
  ----- ------------  ---------------      ----- ------------  ---------------
     1      0.399074  1 C  s                 20      0.399071  2 C  s          
     2      0.323658  1 C  s                 21      0.323655  2 C  s          

 Vector    2  Occ=2.000000D+00  E=-1.011125D+01
              MO Center= -6.1D-06, -5.2D-10,  1.1D-11, r^2= 6.1D-01
   Bfn.  Coefficient  Atom+Function         Bfn.  Coefficient  Atom+Function  
  ----- ------------  ---------------      ----- ------------  ---------------
     1      0.399124  1 C  s                 20     -0.399128  2 C  s          
     2      0.323672  1 C  s                 21     -0.323674  2 C  s          

 Vector    3  Occ=2.000000D+00  E=-9.171582D-01
              MO Center= -1.8D-08, -1.9D-09, -2.5D-08, r^2= 1.4D+00
   Bfn.  Coefficient  Atom+Function         Bfn.  Coefficient  Atom+Function  
  ----- ------------  ---------------      ----- ------------  ---------------
     6      0.323531  1 C  s                 25      0.323531  2 C  s          
    10      0.200842  1 C  s                 29      0.200842  2 C  s          
     2     -0.123396  1 C  s                 21     -0.123396  2 C  s          
     1     -0.081534  1 C  s                 20     -0.081534  2 C  s          
    39      0.054149  3 H  s                 42      0.054149  4 H  s          

 Vector    4  Occ=2.000000D+00  E=-7.672881D-01
              MO Center=  3.5D-08, -3.4D-09, -1.8D-08, r^2= 2.2D+00
   Bfn.  Coefficient  Atom+Function         Bfn.  Coefficient  Atom+Function  
  ----- ------------  ---------------      ----- ------------  ---------------
     6      0.286195  1 C  s                 25     -0.286195  2 C  s          
    10      0.252054  1 C  s                 29     -0.252054  2 C  s          
     2     -0.108476  1 C  s                 21      0.108476  2 C  s          
     7      0.104934  1 C  px                26      0.104934  2 C  px         
    39      0.073971  3 H  s                 42      0.073971  4 H  s          

 Vector    5  Occ=2.000000D+00  E=-5.700359D-01
              MO Center= -6.3D-08,  1.7D-08,  4.2D-07, r^2= 2.0D+00
   Bfn.  Coefficient  Atom+Function         Bfn.  Coefficient  Atom+Function  
  ----- ------------  ---------------      ----- ------------  ---------------
     9      0.230471  1 C  pz                28      0.230471  2 C  pz         
    13      0.145335  1 C  pz                32      0.145335  2 C  pz         
     5      0.141388  1 C  pz                24      0.141388  2 C  pz         
    40      0.115475  3 H  s                 43     -0.115475  4 H  s          
    49      0.115475  6 H  s                 52     -0.115475  7 H  s          

 Vector    6  Occ=2.000000D+00  E=-5.699962D-01
              MO Center= -5.6D-08, -1.5D-08, -1.1D-07, r^2= 2.0D+00
   Bfn.  Coefficient  Atom+Function         Bfn.  Coefficient  Atom+Function  
  ----- ------------  ---------------      ----- ------------  ---------------
     8      0.230477  1 C  py                27      0.230477  2 C  py         
    12      0.145336  1 C  py                31      0.145336  2 C  py         
     4      0.141393  1 C  py                23      0.141393  2 C  py         
    46      0.133334  5 H  s                 55     -0.133334  8 H  s          
    45      0.109098  5 H  s                 54     -0.109098  8 H  s          

 Vector    7  Occ=2.000000D+00  E=-4.954372D-01
              MO Center= -1.8D-08,  2.2D-09,  9.4D-08, r^2= 1.7D+00
   Bfn.  Coefficient  Atom+Function         Bfn.  Coefficient  Atom+Function  
  ----- ------------  ---------------      ----- ------------  ---------------
     7      0.288798  1 C  px                26     -0.288798  2 C  px         
    11      0.193841  1 C  px                30     -0.193840  2 C  px         
     3      0.185182  1 C  px                22     -0.185182  2 C  px         
    46      0.066267  5 H  s                 55      0.066267  8 H  s          
    40      0.065876  3 H  s                 43      0.065876  4 H  s          

 Vector    8  Occ=2.000000D+00  E=-4.646812D-01
              MO Center=  6.9D-08, -1.7D-08,  5.5D-08, r^2= 2.4D+00
   Bfn.  Coefficient  Atom+Function         Bfn.  Coefficient  Atom+Function  
  ----- ------------  ---------------      ----- ------------  ---------------
     9      0.226320  1 C  pz                28     -0.226320  2 C  pz         
    13      0.182495  1 C  pz                32     -0.182495  2 C  pz         
    40      0.150737  3 H  s                 43     -0.150737  4 H  s          
    49     -0.150737  6 H  s                 52      0.150738  7 H  s          
     5      0.141648  1 C  pz                24     -0.141648  2 C  pz         

 Vector    9  Occ=2.000000D+00  E=-4.646593D-01
              MO Center=  6.3D-08,  1.9D-08, -5.0D-07, r^2= 2.4D+00
   Bfn.  Coefficient  Atom+Function         Bfn.  Coefficient  Atom+Function  
  ----- ------------  ---------------      ----- ------------  ---------------
     8      0.226316  1 C  py                27     -0.226316  2 C  py         
    12      0.182502  1 C  py                31     -0.182502  2 C  py         
    46      0.173954  5 H  s                 55      0.173954  8 H  s          
     4      0.141648  1 C  py                23     -0.141648  2 C  py         
    45      0.128381  5 H  s                 54      0.128381  8 H  s          

 Vector   10  Occ=0.000000D+00  E= 1.403473D-01
              MO Center=  1.0D-07,  2.6D-09,  6.4D-06, r^2= 6.3D+00
   Bfn.  Coefficient  Atom+Function         Bfn.  Coefficient  Atom+Function  
  ----- ------------  ---------------      ----- ------------  ---------------
    10      1.459973  1 C  s                 29      1.459973  2 C  s          
    41     -0.628407  3 H  s                 44     -0.628400  4 H  s          
    47     -0.628355  5 H  s                 50     -0.628407  6 H  s          
    53     -0.628400  7 H  s                 56     -0.628355  8 H  s          
    11      0.364318  1 C  px                30     -0.364318  2 C  px         

 Vector   11  Occ=0.000000D+00  E= 1.816824D-01
              MO Center= -5.5D-08,  7.4D-09,  3.3D-06, r^2= 7.4D+00
   Bfn.  Coefficient  Atom+Function         Bfn.  Coefficient  Atom+Function  
  ----- ------------  ---------------      ----- ------------  ---------------
    10      1.899976  1 C  s                 29     -1.899976  2 C  s          
    41     -0.771366  3 H  s                 44     -0.771361  4 H  s          
    47     -0.772840  5 H  s                 50      0.771366  6 H  s          
    53      0.771361  7 H  s                 56      0.772840  8 H  s          
     6      0.095967  1 C  s                 25     -0.095967  2 C  s          

 Vector   12  Occ=0.000000D+00  E= 1.957804D-01
              MO Center=  5.0D-08, -1.5D-08, -2.3D-05, r^2= 6.8D+00
   Bfn.  Coefficient  Atom+Function         Bfn.  Coefficient  Atom+Function  
  ----- ------------  ---------------      ----- ------------  ---------------
    41      1.205893  3 H  s                 44     -1.206022  4 H  s          
    50      1.206000  6 H  s                 53     -1.205915  7 H  s          
    13     -0.697464  1 C  pz                32     -0.697464  2 C  pz         
     9     -0.118391  1 C  pz                28     -0.118391  2 C  pz         
     5     -0.107501  1 C  pz                24     -0.107501  2 C  pz         

 Vector   13  Occ=0.000000D+00  E= 1.957857D-01
              MO Center= -4.3D-08, -4.6D-08, -8.3D-06, r^2= 6.8D+00
   Bfn.  Coefficient  Atom+Function         Bfn.  Coefficient  Atom+Function  
  ----- ------------  ---------------      ----- ------------  ---------------
    47      1.391958  5 H  s                 56     -1.391958  8 H  s          
    12     -0.697412  1 C  py                31     -0.697412  2 C  py         
    41     -0.697039  3 H  s                 44     -0.696868  4 H  s          
    50      0.696854  6 H  s                 53      0.697053  7 H  s          
     8     -0.118402  1 C  py                27     -0.118402  2 C  py         

 Vector   14  Occ=0.000000D+00  E= 2.338720D-01
              MO Center= -1.7D-08,  3.0D-08,  5.8D-06, r^2= 6.7D+00
   Bfn.  Coefficient  Atom+Function         Bfn.  Coefficient  Atom+Function  
  ----- ------------  ---------------      ----- ------------  ---------------
    41      1.382197  3 H  s                 44     -1.382205  4 H  s          
    50     -1.382210  6 H  s                 53      1.382192  7 H  s          
    13     -1.156382  1 C  pz                32      1.156382  2 C  pz         
     5     -0.110002  1 C  pz                24      0.110002  2 C  pz         
     9     -0.107743  1 C  pz                28      0.107743  2 C  pz         

 Vector   15  Occ=0.000000D+00  E= 2.338769D-01
              MO Center=  6.9D-08,  8.4D-09,  1.7D-05, r^2= 6.7D+00
   Bfn.  Coefficient  Atom+Function         Bfn.  Coefficient  Atom+Function  
  ----- ------------  ---------------      ----- ------------  ---------------
    47      1.596243  5 H  s                 56      1.596243  8 H  s          
    12     -1.156289  1 C  py                31      1.156289  2 C  py         
    41     -0.797979  3 H  s                 44     -0.797930  4 H  s          
    50     -0.797956  6 H  s                 53     -0.797953  7 H  s          
     4     -0.110008  1 C  py                23      0.110008  2 C  py         

 Vector   16  Occ=0.000000D+00  E= 3.349121D-01
              MO Center= -8.4D-08, -5.8D-09, -6.8D-07, r^2= 3.5D+00
   Bfn.  Coefficient  Atom+Function         Bfn.  Coefficient  Atom+Function  
  ----- ------------  ---------------      ----- ------------  ---------------
    11      2.187980  1 C  px                30      2.187980  2 C  px         
    10     -1.709354  1 C  s                 29      1.709354  2 C  s          
    41     -0.383516  3 H  s                 44     -0.383519  4 H  s          
    47     -0.384055  5 H  s                 50      0.383516  6 H  s          
    53      0.383519  7 H  s                 56      0.384055  8 H  s          

 Vector   17  Occ=0.000000D+00  E= 4.083669D-01
              MO Center= -1.5D-08,  3.9D-08,  2.1D-06, r^2= 3.3D+00
   Bfn.  Coefficient  Atom+Function         Bfn.  Coefficient  Atom+Function  
  ----- ------------  ---------------      ----- ------------  ---------------
    46      0.873116  5 H  s                 55     -0.873116  8 H  s          
    12     -0.638783  1 C  py                31     -0.638783  2 C  py         
    40     -0.436308  3 H  s                 43     -0.436320  4 H  s          
    49      0.436307  6 H  s                 52      0.436321  7 H  s          
    47     -0.269916  5 H  s                 56      0.269916  8 H  s          

 Vector   18  Occ=0.000000D+00  E= 4.084499D-01
              MO Center=  1.0D-08, -2.4D-08,  2.9D-06, r^2= 3.3D+00
   Bfn.  Coefficient  Atom+Function         Bfn.  Coefficient  Atom+Function  
  ----- ------------  ---------------      ----- ------------  ---------------
    40      0.756132  3 H  s                 43     -0.756134  4 H  s          
    49      0.756133  6 H  s                 52     -0.756134  7 H  s          
    13     -0.639102  1 C  pz                32     -0.639102  2 C  pz         
    41     -0.233726  3 H  s                 44      0.233730  4 H  s          
    50     -0.233726  6 H  s                 53      0.233729  7 H  s          

 Vector   19  Occ=0.000000D+00  E= 4.377828D-01
              MO Center=  3.6D-08,  3.5D-09,  1.1D-08, r^2= 4.4D+00
   Bfn.  Coefficient  Atom+Function         Bfn.  Coefficient  Atom+Function  
  ----- ------------  ---------------      ----- ------------  ---------------
    11      1.044981  1 C  px                30     -1.044981  2 C  px         
    10      0.526604  1 C  s                 29      0.526604  2 C  s          
    40     -0.406493  3 H  s                 43     -0.406497  4 H  s          
    49     -0.406493  6 H  s                 52     -0.406497  7 H  s          
    46     -0.402535  5 H  s                 55     -0.402536  8 H  s          

 Vector   20  Occ=0.000000D+00  E= 4.492664D-01
              MO Center= -2.4D-08, -1.5D-08,  1.6D-07, r^2= 4.6D+00
   Bfn.  Coefficient  Atom+Function         Bfn.  Coefficient  Atom+Function  
  ----- ------------  ---------------      ----- ------------  ---------------
    13      1.759139  1 C  pz                32     -1.759139  2 C  pz         
    40     -0.896766  3 H  s                 43      0.896762  4 H  s          
    49      0.896771  6 H  s                 52     -0.896756  7 H  s          
    41      0.250386  3 H  s                 44     -0.250385  4 H  s          
    50     -0.250387  6 H  s                 53      0.250383  7 H  s          

 Vector   21  Occ=0.000000D+00  E= 4.493459D-01
              MO Center= -4.1D-09,  2.1D-08, -1.6D-06, r^2= 4.6D+00
   Bfn.  Coefficient  Atom+Function         Bfn.  Coefficient  Atom+Function  
  ----- ------------  ---------------      ----- ------------  ---------------
    12      1.759171  1 C  py                31     -1.759171  2 C  py         
    46     -1.036567  5 H  s                 55     -1.036567  8 H  s          
    40      0.516740  3 H  s                 43      0.516723  4 H  s          
    49      0.516731  6 H  s                 52      0.516732  7 H  s          
    47      0.289039  5 H  s                 56      0.289039  8 H  s          

 Vector   22  Occ=0.000000D+00  E= 6.555040D-01
              MO Center=  1.8D-07,  1.7D-08, -7.5D-07, r^2= 3.4D+00
   Bfn.  Coefficient  Atom+Function         Bfn.  Coefficient  Atom+Function  
  ----- ------------  ---------------      ----- ------------  ---------------
    40      0.772157  3 H  s                 43      0.772159  4 H  s          
    46      0.771931  5 H  s                 49     -0.772157  6 H  s          
    52     -0.772159  7 H  s                 55     -0.771931  8 H  s          
     6     -0.611466  1 C  s                 25      0.611466  2 C  s          
    10     -0.477547  1 C  s                 29      0.477547  2 C  s          

 Vector   23  Occ=0.000000D+00  E= 6.873402D-01
              MO Center= -1.6D-07,  8.0D-09, -1.4D-06, r^2= 3.8D+00
   Bfn.  Coefficient  Atom+Function         Bfn.  Coefficient  Atom+Function  
  ----- ------------  ---------------      ----- ------------  ---------------
    10     -0.625374  1 C  s                 29     -0.625374  2 C  s          
    40     -0.598405  3 H  s                 43     -0.598405  4 H  s          
    46     -0.598627  5 H  s                 49     -0.598405  6 H  s          
    52     -0.598406  7 H  s                 55     -0.598627  8 H  s          
     6      0.580592  1 C  s                 25      0.580592  2 C  s          

 Vector   24  Occ=0.000000D+00  E= 7.152807D-01
              MO Center=  1.7D-07,  2.2D-08, -1.3D-05, r^2= 3.6D+00
   Bfn.  Coefficient  Atom+Function         Bfn.  Coefficient  Atom+Function  
  ----- ------------  ---------------      ----- ------------  ---------------
    12      1.283141  1 C  py                31     -1.283141  2 C  py         
    47     -1.225186  5 H  s                 56     -1.225186  8 H  s          
     8     -0.760713  1 C  py                27      0.760713  2 C  py         
    41      0.612533  3 H  s                 44      0.612614  4 H  s          
    50      0.612543  6 H  s                 53      0.612603  7 H  s          

 Vector   25  Occ=0.000000D+00  E= 7.152890D-01
              MO Center=  2.8D-07, -4.8D-08, -3.9D-06, r^2= 3.6D+00
   Bfn.  Coefficient  Atom+Function         Bfn.  Coefficient  Atom+Function  
  ----- ------------  ---------------      ----- ------------  ---------------
    13      1.282914  1 C  pz                32     -1.282914  2 C  pz         
    41     -1.061008  3 H  s                 44      1.061016  4 H  s          
    50      1.061001  6 H  s                 53     -1.061021  7 H  s          
     9     -0.760712  1 C  pz                28      0.760712  2 C  pz         
    40      0.412056  3 H  s                 43     -0.412057  4 H  s          

 Vector   26  Occ=0.000000D+00  E= 7.214590D-01
              MO Center= -3.4D-07,  6.1D-08,  1.7D-05, r^2= 3.8D+00
   Bfn.  Coefficient  Atom+Function         Bfn.  Coefficient  Atom+Function  
  ----- ------------  ---------------      ----- ------------  ---------------
    13      1.326517  1 C  pz                32      1.326517  2 C  pz         
    41     -1.090205  3 H  s                 44      1.090926  4 H  s          
    50     -1.090971  6 H  s                 53      1.090161  7 H  s          
     9     -0.772366  1 C  pz                28     -0.772366  2 C  pz         
    40      0.190199  3 H  s                 43     -0.190320  4 H  s          

 Vector   27  Occ=0.000000D+00  E= 7.214597D-01
              MO Center= -1.2D-07, -5.6D-08,  4.3D-06, r^2= 3.8D+00
   Bfn.  Coefficient  Atom+Function         Bfn.  Coefficient  Atom+Function  
  ----- ------------  ---------------      ----- ------------  ---------------
    12      1.326345  1 C  py                31      1.326345  2 C  py         
    47     -1.259085  5 H  s                 56      1.259085  8 H  s          
     8     -0.772348  1 C  py                27     -0.772348  2 C  py         
    41      0.630606  3 H  s                 44      0.629255  4 H  s          
    50     -0.629281  6 H  s                 53     -0.630580  7 H  s          

 Vector   28  Occ=0.000000D+00  E= 7.501753D-01
              MO Center=  4.9D-08, -2.1D-08, -5.6D-07, r^2= 3.8D+00
   Bfn.  Coefficient  Atom+Function         Bfn.  Coefficient  Atom+Function  
  ----- ------------  ---------------      ----- ------------  ---------------
    11      2.211582  1 C  px                30      2.211582  2 C  px         
    10     -0.882772  1 C  s                 29      0.882772  2 C  s          
     7     -0.729891  1 C  px                26     -0.729891  2 C  px         
    41     -0.659824  3 H  s                 44     -0.659826  4 H  s          
    47     -0.660543  5 H  s                 50      0.659824  6 H  s          

 Vector   29  Occ=0.000000D+00  E= 8.213506D-01
              MO Center= -2.6D-08,  8.3D-10, -4.2D-06, r^2= 3.6D+00
   Bfn.  Coefficient  Atom+Function         Bfn.  Coefficient  Atom+Function  
  ----- ------------  ---------------      ----- ------------  ---------------
    10      3.433332  1 C  s                 29      3.433332  2 C  s          
     6     -1.150289  1 C  s                 25     -1.150289  2 C  s          
    40     -0.608784  3 H  s                 43     -0.608784  4 H  s          
    46     -0.608959  5 H  s                 49     -0.608784  6 H  s          
    52     -0.608784  7 H  s                 55     -0.608959  8 H  s          

 Vector   30  Occ=0.000000D+00  E= 9.377432D-01
              MO Center= -3.8D-09, -1.1D-10, -1.3D-06, r^2= 3.7D+00
   Bfn.  Coefficient  Atom+Function         Bfn.  Coefficient  Atom+Function  
  ----- ------------  ---------------      ----- ------------  ---------------
    10      8.827855  1 C  s                 29     -8.827855  2 C  s          
    11     -2.220860  1 C  px                30     -2.220860  2 C  px         
     6     -1.488768  1 C  s                 25      1.488768  2 C  s          
    40     -0.991642  3 H  s                 43     -0.991643  4 H  s          
    46     -0.991364  5 H  s                 49      0.991642  6 H  s          

 Vector   31  Occ=0.000000D+00  E= 1.281597D+00
              MO Center=  3.0D-09,  1.6D-09, -8.5D-08, r^2= 1.5D+00
   Bfn.  Coefficient  Atom+Function         Bfn.  Coefficient  Atom+Function  
  ----- ------------  ---------------      ----- ------------  ---------------
    16      1.052824  1 C  dxz               35     -1.052824  2 C  dxz        
    18      0.390848  1 C  dyz               37     -0.390848  2 C  dyz        
    40     -0.324667  3 H  s                 43      0.324667  4 H  s          
    49     -0.324666  6 H  s                 52      0.324667  7 H  s          
    13      0.221758  1 C  pz                32      0.221758  2 C  pz         

 Vector   32  Occ=0.000000D+00  E= 1.281676D+00
              MO Center=  5.3D-09, -2.7D-09, -6.2D-08, r^2= 1.5D+00
   Bfn.  Coefficient  Atom+Function         Bfn.  Coefficient  Atom+Function  
  ----- ------------  ---------------      ----- ------------  ---------------
    15      1.052869  1 C  dxy               34     -1.052869  2 C  dxy        
    46     -0.375688  5 H  s                 55      0.375688  8 H  s          
    12      0.221674  1 C  py                31      0.221674  2 C  py         
    17     -0.195463  1 C  dyy               19      0.195343  1 C  dzz        
    36      0.195463  2 C  dyy               38     -0.195343  2 C  dzz        

 Vector   33  Occ=0.000000D+00  E= 1.606339D+00
              MO Center=  6.6D-08,  8.2D-09,  1.7D-09, r^2= 2.1D+00
   Bfn.  Coefficient  Atom+Function         Bfn.  Coefficient  Atom+Function  
  ----- ------------  ---------------      ----- ------------  ---------------
    12      1.116275  1 C  py                31     -1.116275  2 C  py         
    46     -0.990743  5 H  s                 55     -0.990743  8 H  s          
    17      0.676881  1 C  dyy               19     -0.676895  1 C  dzz        
    36      0.676881  2 C  dyy               38     -0.676895  2 C  dzz        
    40      0.495516  3 H  s                 43      0.495520  4 H  s          

 Vector   34  Occ=0.000000D+00  E= 1.606409D+00
              MO Center=  6.6D-08, -7.2D-09, -4.0D-08, r^2= 2.1D+00
   Bfn.  Coefficient  Atom+Function         Bfn.  Coefficient  Atom+Function  
  ----- ------------  ---------------      ----- ------------  ---------------
    18      1.353839  1 C  dyz               37      1.353839  2 C  dyz        
    13     -1.116211  1 C  pz                32      1.116211  2 C  pz         
    40      0.858312  3 H  s                 43     -0.858311  4 H  s          
    49     -0.858310  6 H  s                 52      0.858313  7 H  s          
    16      0.101819  1 C  dxz               35      0.101819  2 C  dxz        

 Vector   35  Occ=0.000000D+00  E= 1.675097D+00
              MO Center= -1.0D-07, -6.6D-09,  1.1D-08, r^2= 2.5D+00
   Bfn.  Coefficient  Atom+Function         Bfn.  Coefficient  Atom+Function  
  ----- ------------  ---------------      ----- ------------  ---------------
    46      1.075534  5 H  s                 55     -1.075534  8 H  s          
    17     -0.618529  1 C  dyy               19      0.618528  1 C  dzz        
    36      0.618529  2 C  dyy               38     -0.618528  2 C  dzz        
    40     -0.537987  3 H  s                 43     -0.537984  4 H  s          
    49      0.537986  6 H  s                 52      0.537985  7 H  s          

 Vector   36  Occ=0.000000D+00  E= 1.675170D+00
              MO Center= -9.5D-08,  5.9D-09,  4.9D-07, r^2= 2.5D+00
   Bfn.  Coefficient  Atom+Function         Bfn.  Coefficient  Atom+Function  
  ----- ------------  ---------------      ----- ------------  ---------------
    18      1.237065  1 C  dyz               37     -1.237065  2 C  dyz        
    40      0.931698  3 H  s                 43     -0.931696  4 H  s          
    49      0.931698  6 H  s                 52     -0.931696  7 H  s          
    13     -0.437487  1 C  pz                32     -0.437487  2 C  pz         
    16     -0.426472  1 C  dxz               35      0.426472  2 C  dxz        

 Vector   37  Occ=0.000000D+00  E= 1.690644D+00
              MO Center= -3.9D-08, -6.5D-10, -3.6D-07, r^2= 2.1D+00
   Bfn.  Coefficient  Atom+Function         Bfn.  Coefficient  Atom+Function  
  ----- ------------  ---------------      ----- ------------  ---------------
    14     -0.595872  1 C  dxx               33     -0.595872  2 C  dxx        
    11      0.563449  1 C  px                30     -0.563449  2 C  px         
    17      0.471652  1 C  dyy               19      0.471633  1 C  dzz        
    36      0.471652  2 C  dyy               38      0.471633  2 C  dzz        
    40     -0.461955  3 H  s                 43     -0.461958  4 H  s          

 Vector   38  Occ=0.000000D+00  E= 1.871074D+00
              MO Center=  2.8D-08,  1.8D-08, -1.3D-08, r^2= 2.0D+00
   Bfn.  Coefficient  Atom+Function         Bfn.  Coefficient  Atom+Function  
  ----- ------------  ---------------      ----- ------------  ---------------
    15      1.415300  1 C  dxy               34      1.415300  2 C  dxy        
    46     -0.668795  5 H  s                 55     -0.668795  8 H  s          
    47      0.507719  5 H  s                 56      0.507719  8 H  s          
    40      0.333717  3 H  s                 43      0.333717  4 H  s          
    49      0.333717  6 H  s                 52      0.333717  7 H  s          

 Vector   39  Occ=0.000000D+00  E= 1.871120D+00
              MO Center=  2.5D-08, -1.8D-08,  2.1D-07, r^2= 2.0D+00
   Bfn.  Coefficient  Atom+Function         Bfn.  Coefficient  Atom+Function  
  ----- ------------  ---------------      ----- ------------  ---------------
    16      1.415481  1 C  dxz               35      1.415481  2 C  dxz        
    40     -0.578228  3 H  s                 43      0.578227  4 H  s          
    49      0.578227  6 H  s                 52     -0.578227  7 H  s          
    41      0.439487  3 H  s                 44     -0.439487  4 H  s          
    50     -0.439487  6 H  s                 53      0.439487  7 H  s          

 Vector   40  Occ=0.000000D+00  E= 2.023922D+00
              MO Center=  2.2D-08,  1.0D-09, -9.7D-08, r^2= 2.5D+00
   Bfn.  Coefficient  Atom+Function         Bfn.  Coefficient  Atom+Function  
  ----- ------------  ---------------      ----- ------------  ---------------
    11      0.833179  1 C  px                30      0.833178  2 C  px         
    14     -0.716470  1 C  dxx               33      0.716470  2 C  dxx        
    40     -0.640461  3 H  s                 43     -0.640462  4 H  s          
    46     -0.640373  5 H  s                 49      0.640461  6 H  s          
    52      0.640462  7 H  s                 55      0.640373  8 H  s          

 Vector   41  Occ=0.000000D+00  E= 2.410071D+00
              MO Center=  5.4D-07,  4.6D-09, -6.9D-08, r^2= 3.1D+00
   Bfn.  Coefficient  Atom+Function         Bfn.  Coefficient  Atom+Function  
  ----- ------------  ---------------      ----- ------------  ---------------
    40      0.939047  3 H  s                 43      0.939048  4 H  s          
    46      0.938758  5 H  s                 49      0.939047  6 H  s          
    52      0.939047  7 H  s                 55      0.938757  8 H  s          
     6      0.571422  1 C  s                 25      0.571422  2 C  s          
    39     -0.541199  3 H  s                 42     -0.541199  4 H  s          

 Vector   42  Occ=0.000000D+00  E= 2.465318D+00
              MO Center= -5.2D-07,  7.8D-09,  1.1D-07, r^2= 2.8D+00
   Bfn.  Coefficient  Atom+Function         Bfn.  Coefficient  Atom+Function  
  ----- ------------  ---------------      ----- ------------  ---------------
    10      2.189996  1 C  s                 29     -2.189996  2 C  s          
    11     -1.322308  1 C  px                30     -1.322308  2 C  px         
    40     -0.844234  3 H  s                 43     -0.844234  4 H  s          
    46     -0.845200  5 H  s                 49      0.844234  6 H  s          
    52      0.844234  7 H  s                 55      0.845201  8 H  s          

 Vector   43  Occ=0.000000D+00  E= 2.553114D+00
              MO Center= -2.8D-07,  7.9D-08,  5.7D-07, r^2= 2.3D+00
   Bfn.  Coefficient  Atom+Function         Bfn.  Coefficient  Atom+Function  
  ----- ------------  ---------------      ----- ------------  ---------------
     9      0.717435  1 C  pz                28      0.717435  2 C  pz         
    40     -0.630167  3 H  s                 43      0.630167  4 H  s          
    49     -0.630168  6 H  s                 52      0.630167  7 H  s          
     5     -0.617825  1 C  pz                24     -0.617825  2 C  pz         
    39      0.536166  3 H  s                 41      0.538571  3 H  s          

 Vector   44  Occ=0.000000D+00  E= 2.553137D+00
              MO Center= -1.2D-07, -3.5D-08, -2.8D-07, r^2= 2.3D+00
   Bfn.  Coefficient  Atom+Function         Bfn.  Coefficient  Atom+Function  
  ----- ------------  ---------------      ----- ------------  ---------------
    46     -0.727056  5 H  s                 55      0.727057  8 H  s          
     8      0.717457  1 C  py                27      0.717457  2 C  py         
    47      0.621610  5 H  s                 56     -0.621610  8 H  s          
     4     -0.617861  1 C  py                23     -0.617861  2 C  py         
    45      0.618738  5 H  s                 54     -0.618738  8 H  s          

 Vector   45  Occ=0.000000D+00  E= 2.595046D+00
              MO Center=  2.6D-07, -6.9D-08,  1.2D-07, r^2= 2.6D+00
   Bfn.  Coefficient  Atom+Function         Bfn.  Coefficient  Atom+Function  
  ----- ------------  ---------------      ----- ------------  ---------------
    16      0.775585  1 C  dxz               35      0.775585  2 C  dxz        
    40      0.776872  3 H  s                 43     -0.776872  4 H  s          
    49     -0.776872  6 H  s                 52      0.776872  7 H  s          
    39     -0.637538  3 H  s                 42      0.637538  4 H  s          
    48      0.637538  6 H  s                 51     -0.637537  7 H  s          

 Vector   46  Occ=0.000000D+00  E= 2.595320D+00
              MO Center=  1.1D-07,  2.1D-08, -4.7D-07, r^2= 2.6D+00
   Bfn.  Coefficient  Atom+Function         Bfn.  Coefficient  Atom+Function  
  ----- ------------  ---------------      ----- ------------  ---------------
    46      0.897041  5 H  s                 55      0.897041  8 H  s          
    15      0.775967  1 C  dxy               34      0.775967  2 C  dxy        
    45     -0.736210  5 H  s                 54     -0.736210  8 H  s          
    47     -0.635763  5 H  s                 56     -0.635763  8 H  s          
     8     -0.603558  1 C  py                27      0.603558  2 C  py         

 Vector   47  Occ=0.000000D+00  E= 2.993059D+00
              MO Center= -1.0D-08, -5.1D-10, -2.7D-09, r^2= 9.3D-01
   Bfn.  Coefficient  Atom+Function         Bfn.  Coefficient  Atom+Function  
  ----- ------------  ---------------      ----- ------------  ---------------
     3      0.891888  1 C  px                22     -0.891888  2 C  px         
     7     -0.834937  1 C  px                26      0.834938  2 C  px         
     6     -0.519908  1 C  s                 25     -0.519908  2 C  s          
    11      0.333265  1 C  px                30     -0.333265  2 C  px         
    14      0.307487  1 C  dxx               33      0.307487  2 C  dxx        

 Vector   48  Occ=0.000000D+00  E= 3.225603D+00
              MO Center=  5.7D-07,  1.1D-07,  2.1D-07, r^2= 1.6D+00
   Bfn.  Coefficient  Atom+Function         Bfn.  Coefficient  Atom+Function  
  ----- ------------  ---------------      ----- ------------  ---------------
     8      1.131291  1 C  py                27     -1.131291  2 C  py         
     4     -0.858352  1 C  py                23      0.858351  2 C  py         
    12     -0.683636  1 C  py                31      0.683636  2 C  py         
    45     -0.551342  5 H  s                 54     -0.551341  8 H  s          
    46      0.316348  5 H  s                 55      0.316348  8 H  s          

 Vector   49  Occ=0.000000D+00  E= 3.225727D+00
              MO Center=  4.6D-07, -7.9D-08, -1.4D-07, r^2= 1.6D+00
   Bfn.  Coefficient  Atom+Function         Bfn.  Coefficient  Atom+Function  
  ----- ------------  ---------------      ----- ------------  ---------------
     9      1.131382  1 C  pz                28     -1.131381  2 C  pz         
     5     -0.858394  1 C  pz                24      0.858394  2 C  pz         
    13     -0.683385  1 C  pz                32      0.683385  2 C  pz         
    39     -0.477610  3 H  s                 42      0.477610  4 H  s          
    48      0.477609  6 H  s                 51     -0.477610  7 H  s          

 Vector   50  Occ=0.000000D+00  E= 3.266438D+00
              MO Center= -4.5D-07,  8.6D-08,  3.9D-07, r^2= 1.9D+00
   Bfn.  Coefficient  Atom+Function         Bfn.  Coefficient  Atom+Function  
  ----- ------------  ---------------      ----- ------------  ---------------
     9      0.994417  1 C  pz                28      0.994418  2 C  pz         
     5     -0.738737  1 C  pz                24     -0.738737  2 C  pz         
    39     -0.599116  3 H  s                 42      0.599116  4 H  s          
    48     -0.599116  6 H  s                 51      0.599116  7 H  s          
    18     -0.564267  1 C  dyz               37      0.564267  2 C  dyz        

 Vector   51  Occ=0.000000D+00  E= 3.266485D+00
              MO Center= -5.6D-07, -5.4D-08,  1.8D-07, r^2= 1.9D+00
   Bfn.  Coefficient  Atom+Function         Bfn.  Coefficient  Atom+Function  
  ----- ------------  ---------------      ----- ------------  ---------------
     8      0.994403  1 C  py                27      0.994404  2 C  py         
     4     -0.738703  1 C  py                23     -0.738704  2 C  py         
    45     -0.691961  5 H  s                 54      0.691961  8 H  s          
    12     -0.499639  1 C  py                31     -0.499639  2 C  py         
    15      0.438000  1 C  dxy               34     -0.438000  2 C  dxy        

 Vector   52  Occ=0.000000D+00  E= 3.294224D+00
              MO Center=  1.1D-07, -5.2D-08, -7.6D-07, r^2= 2.1D+00
   Bfn.  Coefficient  Atom+Function         Bfn.  Coefficient  Atom+Function  
  ----- ------------  ---------------      ----- ------------  ---------------
    10      2.187483  1 C  s                 29      2.187483  2 C  s          
     6      1.173373  1 C  s                 25      1.173373  2 C  s          
    17     -1.107154  1 C  dyy               19     -1.106960  1 C  dzz        
    36     -1.107154  2 C  dyy               38     -1.106960  2 C  dzz        
    14     -0.906955  1 C  dxx               33     -0.906955  2 C  dxx        

 Vector   53  Occ=0.000000D+00  E= 3.323724D+00
              MO Center= -1.1D-07, -1.6D-08, -1.0D-07, r^2= 1.9D+00
   Bfn.  Coefficient  Atom+Function         Bfn.  Coefficient  Atom+Function  
  ----- ------------  ---------------      ----- ------------  ---------------
    10      4.235355  1 C  s                 29     -4.235355  2 C  s          
    17     -1.141571  1 C  dyy               19     -1.141861  1 C  dzz        
    36      1.141571  2 C  dyy               38      1.141861  2 C  dzz        
     6      1.089866  1 C  s                 25     -1.089866  2 C  s          
    14     -1.014604  1 C  dxx               33      1.014604  2 C  dxx        

 Vector   54  Occ=0.000000D+00  E= 4.163174D+00
              MO Center= -2.3D-09, -3.9D-10,  1.0D-08, r^2= 1.0D+00
   Bfn.  Coefficient  Atom+Function         Bfn.  Coefficient  Atom+Function  
  ----- ------------  ---------------      ----- ------------  ---------------
     7      2.362374  1 C  px                26      2.362374  2 C  px         
    14     -1.849111  1 C  dxx               33      1.849111  2 C  dxx        
     3     -0.929102  1 C  px                22     -0.929102  2 C  px         
     6      0.442460  1 C  s                 25     -0.442460  2 C  s          
    10     -0.324689  1 C  s                 29      0.324689  2 C  s          

 Vector   55  Occ=0.000000D+00  E= 2.645893D+01
              MO Center=  1.3D-07, -4.8D-12, -3.9D-10, r^2= 7.3D-01
   Bfn.  Coefficient  Atom+Function         Bfn.  Coefficient  Atom+Function  
  ----- ------------  ---------------      ----- ------------  ---------------
     2      1.817125  1 C  s                 21      1.817124  2 C  s          
     1     -1.493212  1 C  s                 20     -1.493211  2 C  s          
     6     -0.796069  1 C  s                 25     -0.796068  2 C  s          
    10     -0.584800  1 C  s                 29     -0.584800  2 C  s          
    17      0.455711  1 C  dyy               19      0.455707  1 C  dzz        

 Vector   56  Occ=0.000000D+00  E= 2.649108D+01
              MO Center= -1.5D-07, -3.5D-11,  2.8D-11, r^2= 7.3D-01
   Bfn.  Coefficient  Atom+Function         Bfn.  Coefficient  Atom+Function  
  ----- ------------  ---------------      ----- ------------  ---------------
     2      1.823970  1 C  s                 21     -1.823970  2 C  s          
     1     -1.494809  1 C  s                 20      1.494809  2 C  s          
    10     -1.060998  1 C  s                 29      1.060998  2 C  s          
     6     -0.766898  1 C  s                 25      0.766898  2 C  s          
    14      0.594208  1 C  dxx               33     -0.594208  2 C  dxx        


 center of mass
 --------------
 x =  -0.00000000 y =   0.00000000 z =  -0.00000000

 moments of inertia (a.u.)
 ------------------
          22.348560834445          -0.007437612580           0.000000000000
          -0.007437612580          89.919079195854           0.000000000000
           0.000000000000           0.000000000000          89.915594753500

     Multipole analysis of the density
     ---------------------------------

     L   x y z        total         alpha         beta         nuclear
     -   - - -        -----         -----         ----         -------
     0   0 0 0     -0.000000     -9.000000     -9.000000     18.000000

     1   1 0 0      0.000000      0.000000      0.000000      0.000000
     1   0 1 0     -0.000000     -0.000000     -0.000000      0.000000
     1   0 0 1      0.000000      0.000000      0.000000     -0.000000

     2   2 0 0    -11.514443    -32.620832    -32.620832     53.727221
     2   1 1 0      0.000854     -0.002232     -0.002232      0.005318
     2   1 0 1     -0.000000     -0.000000     -0.000000     -0.000000
     2   0 2 0    -10.996442    -11.041117    -11.041117     11.085792
     2   0 1 1     -0.000000     -0.000000     -0.000000     -0.000000
     2   0 0 2    -10.995516    -11.042383    -11.042383     11.089249

  int_init: cando_txs set to always be  F
                                NWChem TDDFT Module
                                -------------------


       C2H6 LR-TDDFT, LC-wPBE mu=0.431186, 6-311G* Cartesian, PBE0 geometry


            General Information
            -------------------
           No. of orbitals :     112
            Alpha orbitals :      56
             Beta orbitals :      56
        Alpha frozen cores :       0
         Beta frozen cores :       0
     Alpha frozen virtuals :       0
      Beta frozen virtuals :       0
         Spin multiplicity :       1
    Number of AO functions :      56
        Use of symmetry is : off
      Symmetry adaption is : off
         Schwarz screening :  0.10D-07

              XC Information
              --------------
              Hartree-Fock (Exact) Exchange   1.00          
              LC-wPBE(h)Exchange Functional   1.00          
     Perdew 1991 LDA Correlation Functional   1.00 local    
    PerdewBurkeErnz. Correlation Functional   1.00 non-local
           Alpha           :  0.00
           Beta            :  1.00
           Gamma           :  0.43

             TDDFT Information
             -----------------
          Calculation type : TDDFT             
         Wavefunction type : Restricted singlets
          No. of electrons :      18
           Alpha electrons :       9
            Beta electrons :       9
              No. of roots :      16
          Max subspacesize :    7200
            Max iterations :     100
               Target root :       1
           Target symmetry : none
      Symmetry restriction : off
                 Algorithm : Optimal
        Davidson threshold :  0.10D-03

            Memory Information
            ------------------
          Available GA space size is         163836864 doubles
          Available MA space size is         163839212 doubles
          Length of a trial vector is          423
          Algorithm : Incore multiple tensor contraction
          Estimated peak GA usage is          12609888 doubles
          Estimated peak MA usage is            180800 doubles

   16 smallest eigenvalue differences (eV) 
--------------------------------------------------------
  No. Spin  Occ  Vir  Irrep   E(Occ)    E(Vir)   E(Diff)
--------------------------------------------------------
    1    1    9   10 a        -0.465     0.140    16.463
    2    1    8   10 a        -0.465     0.140    16.464
    3    1    7   10 a        -0.495     0.140    17.301
    4    1    9   11 a        -0.465     0.182    17.588
    5    1    8   11 a        -0.465     0.182    17.588
    6    1    9   12 a        -0.465     0.196    17.971
    7    1    9   13 a        -0.465     0.196    17.972
    8    1    8   12 a        -0.465     0.196    17.972
    9    1    8   13 a        -0.465     0.196    17.972
   10    1    7   11 a        -0.495     0.182    18.425
   11    1    7   12 a        -0.495     0.196    18.809
   12    1    7   13 a        -0.495     0.196    18.809
   13    1    9   14 a        -0.465     0.234    19.008
   14    1    9   15 a        -0.465     0.234    19.008
   15    1    8   14 a        -0.465     0.234    19.009
   16    1    8   15 a        -0.465     0.234    19.009
--------------------------------------------------------

  Entering Davidson iterations
  Restricted singlet excited states

  Iter   NTrls   NConv    DeltaV     DeltaE      Time   
  ----  ------  ------  ---------  ---------  --------- 
    1     16       0     0.27E+00   0.10+100       12.6
    2     48       0     0.38E-01   0.26E-01       24.1
    3     80       0     0.15E-01   0.24E-02       23.6
    4    112       0     0.37E-01   0.28E-02       23.7
    5    144       2     0.60E-02   0.11E-02       23.6
    6    172      11     0.12E-02   0.44E-04       21.1
    7    182      14     0.28E-03   0.83E-06        8.5
    8    186      16     0.74E-04   0.43E-07        4.4
  ----  ------  ------  ---------  ---------  --------- 
  Convergence criterion met

  Ground state a         -79.795095703417 a.u.

  ----------------------------------------------------------------------------
  Root   1 singlet a              0.388017955 a.u.               10.5585 eV 
  ----------------------------------------------------------------------------
     Transition Moments    X  0.00000   Y  0.00000   Z -0.00000
     Transition Moments   XX -0.00098  XY  2.71285  XZ  0.00001
     Transition Moments   YY  1.14039  YZ -0.00000  ZZ -1.14266
     Dipole Oscillator Strength                    0.0000000000
     Electric Quadrupole                           0.0000026949
     Magnetic Dipole                               0.0000060058
     Total Oscillator Strength                     0.0000087006

     Occ.    6  a   ---  Virt.   11  a    0.16315 X
     Occ.    6  a   ---  Virt.   16  a    0.05387 X
     Occ.    9  a   ---  Virt.   10  a    0.97684 X
  ----------------------------------------------------------------------------
  Root   2 singlet a              0.388037237 a.u.               10.5590 eV 
  ----------------------------------------------------------------------------
     Transition Moments    X -0.00000   Y  0.00000   Z -0.00000
     Transition Moments   XX -0.00000  XY  0.00001  XZ -2.71340
     Transition Moments   YY  0.00000  YZ  1.14118  ZZ -0.00000
     Dipole Oscillator Strength                    0.0000000000
     Electric Quadrupole                           0.0000026960
     Magnetic Dipole                               0.0000060098
     Total Oscillator Strength                     0.0000087058

     Occ.    5  a   ---  Virt.   11  a   -0.16306 X
     Occ.    5  a   ---  Virt.   16  a   -0.05383 X
     Occ.    8  a   ---  Virt.   10  a   -0.97683 X
  ----------------------------------------------------------------------------
  Root   3 singlet a              0.422899573 a.u.               11.5077 eV 
  ----------------------------------------------------------------------------
     Transition Moments    X  0.00000   Y  0.00000   Z  0.00000
     Transition Moments   XX  0.94352  XY  0.00372  XZ  0.00000
     Transition Moments   YY  0.67976  YZ -0.00000  ZZ  0.67712
     Dipole Oscillator Strength                    0.0000000000
     Electric Quadrupole                           0.0000000094
     Magnetic Dipole                               0.0000000000
     Total Oscillator Strength                     0.0000000095

     Occ.    7  a   ---  Virt.   10  a    0.99114 X
     Occ.    7  a   ---  Virt.   19  a    0.05375 X
     Occ.    8  a   ---  Virt.   14  a    0.05573 X
     Occ.    9  a   ---  Virt.   15  a    0.05554 X
  ----------------------------------------------------------------------------
  Root   4 singlet a              0.433602040 a.u.               11.7989 eV 
  ----------------------------------------------------------------------------
     Transition Moments    X  0.00107   Y -1.23085   Z -0.00000
     Transition Moments   XX  0.00000  XY  0.00000  XZ -0.00000
     Transition Moments   YY  0.00000  YZ  0.00000  ZZ -0.00000
     Dipole Oscillator Strength                    0.4379369343
     Electric Quadrupole                           0.0000000000
     Magnetic Dipole                               0.0000000000
     Total Oscillator Strength                     0.4379369343

     Occ.    6  a   ---  Virt.   10  a   -0.34125 X
     Occ.    6  a   ---  Virt.   19  a    0.05790 X
     Occ.    7  a   ---  Virt.   13  a    0.11238 X
     Occ.    8  a   ---  Virt.   12  a   -0.20898 X
     Occ.    9  a   ---  Virt.   11  a   -0.87421 X
     Occ.    9  a   ---  Virt.   13  a    0.20823 X
     Occ.    9  a   ---  Virt.   16  a    0.07261 X
  ----------------------------------------------------------------------------
  Root   5 singlet a              0.433628996 a.u.               11.7997 eV 
  ----------------------------------------------------------------------------
     Transition Moments    X -0.00000   Y -0.00000   Z  1.23108
     Transition Moments   XX -0.00000  XY -0.00001  XZ -0.00000
     Transition Moments   YY -0.00000  YZ  0.00000  ZZ  0.00000
     Dipole Oscillator Strength                    0.4381282962
     Electric Quadrupole                           0.0000000000
     Magnetic Dipole                               0.0000000000
     Total Oscillator Strength                     0.4381282962

     Occ.    5  a   ---  Virt.   10  a    0.34115 X
     Occ.    5  a   ---  Virt.   19  a   -0.05804 X
     Occ.    7  a   ---  Virt.   12  a   -0.11229 X
     Occ.    8  a   ---  Virt.   11  a    0.87388 X
     Occ.    8  a   ---  Virt.   13  a    0.20891 X
     Occ.    8  a   ---  Virt.   16  a   -0.07267 X
     Occ.    9  a   ---  Virt.   12  a    0.20987 X
  ----------------------------------------------------------------------------
  Root   6 singlet a              0.448644831 a.u.               12.2083 eV 
  ----------------------------------------------------------------------------
     Transition Moments    X  0.00000   Y  0.00000   Z  0.00004
     Transition Moments   XX  0.00000  XY  0.00002  XZ -0.00000
     Transition Moments   YY  0.00001  YZ  0.00000  ZZ -0.00000
     Dipole Oscillator Strength                    0.0000000004
     Electric Quadrupole                           0.0000000000
     Magnetic Dipole                               0.0000000000
     Total Oscillator Strength                     0.0000000004

     Occ.    5  a   ---  Virt.   15  a    0.11518 X
     Occ.    6  a   ---  Virt.   14  a   -0.11541 X
     Occ.    8  a   ---  Virt.   13  a    0.68812 X
     Occ.    8  a   ---  Virt.   17  a    0.08723 X
     Occ.    8  a   ---  Virt.   27  a    0.05596 X
     Occ.    9  a   ---  Virt.   12  a   -0.69016 X
     Occ.    9  a   ---  Virt.   18  a   -0.08728 X
     Occ.    9  a   ---  Virt.   26  a   -0.05611 X
  ----------------------------------------------------------------------------
  Root   7 singlet a              0.451637395 a.u.               12.2897 eV 
  ----------------------------------------------------------------------------
     Transition Moments    X -0.00263   Y -0.47444   Z -0.00001
     Transition Moments   XX  0.00000  XY -0.00000  XZ -0.00001
     Transition Moments   YY -0.00000  YZ  0.00000  ZZ  0.00000
     Dipole Oscillator Strength                    0.0677754306
     Electric Quadrupole                           0.0000000000
     Magnetic Dipole                               0.0000000000
     Total Oscillator Strength                     0.0677754306

     Occ.    5  a   ---  Virt.   14  a   -0.09225 X
     Occ.    6  a   ---  Virt.   10  a    0.05637 X
     Occ.    6  a   ---  Virt.   15  a    0.09257 X
     Occ.    7  a   ---  Virt.   13  a   -0.06883 X
     Occ.    8  a   ---  Virt.   12  a   -0.66022 X
     Occ.    9  a   ---  Virt.   11  a    0.29582 X
     Occ.    9  a   ---  Virt.   13  a    0.66229 X
  ----------------------------------------------------------------------------
  Root   8 singlet a              0.451640952 a.u.               12.2898 eV 
  ----------------------------------------------------------------------------
     Transition Moments    X  0.00000   Y  0.00001   Z -0.47580
     Transition Moments   XX  0.00001  XY -0.00000  XZ -0.00000
     Transition Moments   YY  0.00001  YZ  0.00000  ZZ  0.00001
     Dipole Oscillator Strength                    0.0681631431
     Electric Quadrupole                           0.0000000000
     Magnetic Dipole                               0.0000000000
     Total Oscillator Strength                     0.0681631431

     Occ.    5  a   ---  Virt.   10  a    0.05647 X
     Occ.    5  a   ---  Virt.   15  a   -0.09260 X
     Occ.    6  a   ---  Virt.   14  a   -0.09217 X
     Occ.    7  a   ---  Virt.   12  a   -0.06832 X
     Occ.    8  a   ---  Virt.   11  a    0.29705 X
     Occ.    8  a   ---  Virt.   13  a   -0.66221 X
     Occ.    9  a   ---  Virt.   12  a   -0.65981 X
  ----------------------------------------------------------------------------
  Root   9 singlet a              0.458681595 a.u.               12.4814 eV 
  ----------------------------------------------------------------------------
     Transition Moments    X -1.51684   Y  0.00084   Z -0.00000
     Transition Moments   XX -0.00000  XY  0.00000  XZ  0.00004
     Transition Moments   YY -0.00000  YZ -0.00002  ZZ -0.00000
     Dipole Oscillator Strength                    0.7035596554
     Electric Quadrupole                           0.0000000000
     Magnetic Dipole                               0.0000000000
     Total Oscillator Strength                     0.7035596554

     Occ.    4  a   ---  Virt.   10  a   -0.07317 X
     Occ.    5  a   ---  Virt.   14  a    0.10489 X
     Occ.    6  a   ---  Virt.   15  a    0.10472 X
     Occ.    7  a   ---  Virt.   11  a   -0.26650 X
     Occ.    7  a   ---  Virt.   16  a    0.10306 X
     Occ.    7  a   ---  Virt.   28  a   -0.05094 X
     Occ.    8  a   ---  Virt.   12  a    0.66612 X
     Occ.    9  a   ---  Virt.   13  a    0.66425 X
  ----------------------------------------------------------------------------
  Root  10 singlet a              0.470181831 a.u.               12.7943 eV 
  ----------------------------------------------------------------------------
     Transition Moments    X -0.70114   Y -0.00303   Z -0.00000
     Transition Moments   XX  0.00000  XY -0.00000  XZ -0.00003
     Transition Moments   YY  0.00000  YZ  0.00002  ZZ  0.00000
     Dipole Oscillator Strength                    0.1540963801
     Electric Quadrupole                           0.0000000000
     Magnetic Dipole                               0.0000000000
     Total Oscillator Strength                     0.1540963801

     Occ.    4  a   ---  Virt.   10  a   -0.07475 X
     Occ.    7  a   ---  Virt.   11  a   -0.95119 X
     Occ.    7  a   ---  Virt.   22  a    0.05631 X
     Occ.    8  a   ---  Virt.   12  a   -0.19545 X
     Occ.    9  a   ---  Virt.   13  a   -0.19536 X
  ----------------------------------------------------------------------------
  Root  11 singlet a              0.474777104 a.u.               12.9193 eV 
  ----------------------------------------------------------------------------
     Transition Moments    X  0.00000   Y -0.00002   Z -0.30734
     Transition Moments   XX  0.00001  XY -0.00004  XZ  0.00000
     Transition Moments   YY -0.00002  YZ -0.00000  ZZ  0.00003
     Dipole Oscillator Strength                    0.0298980523
     Electric Quadrupole                           0.0000000000
     Magnetic Dipole                               0.0000000000
     Total Oscillator Strength                     0.0298980523

     Occ.    4  a   ---  Virt.   14  a    0.07606 X
     Occ.    5  a   ---  Virt.   10  a    0.14991 X
     Occ.    7  a   ---  Virt.   12  a    0.96143 X
     Occ.    7  a   ---  Virt.   18  a    0.10326 X
     Occ.    7  a   ---  Virt.   26  a    0.07847 X
     Occ.    8  a   ---  Virt.   11  a    0.09261 X
     Occ.    8  a   ---  Virt.   16  a    0.12600 X
  ----------------------------------------------------------------------------
  Root  12 singlet a              0.474781278 a.u.               12.9195 eV 
  ----------------------------------------------------------------------------
     Transition Moments    X  0.00103   Y -0.30917   Z  0.00002
     Transition Moments   XX  0.00000  XY  0.00000  XZ -0.00002
     Transition Moments   YY  0.00000  YZ  0.00001  ZZ -0.00000
     Dipole Oscillator Strength                    0.0302546543
     Electric Quadrupole                           0.0000000000
     Magnetic Dipole                               0.0000000000
     Total Oscillator Strength                     0.0302546543

     Occ.    4  a   ---  Virt.   15  a    0.07619 X
     Occ.    6  a   ---  Virt.   10  a    0.14997 X
     Occ.    7  a   ---  Virt.   13  a    0.96136 X
     Occ.    7  a   ---  Virt.   17  a    0.10316 X
     Occ.    7  a   ---  Virt.   27  a    0.07843 X
     Occ.    9  a   ---  Virt.   11  a    0.09280 X
     Occ.    9  a   ---  Virt.   16  a    0.12610 X
  ----------------------------------------------------------------------------
  Root  13 singlet a              0.478663183 a.u.               13.0251 eV 
  ----------------------------------------------------------------------------
     Transition Moments    X -0.00001   Y  0.00000   Z  0.00000
     Transition Moments   XX -0.00000  XY -0.00000  XZ  0.02053
     Transition Moments   YY -0.00000  YZ -0.00948  ZZ  0.00000
     Dipole Oscillator Strength                    0.0000000000
     Electric Quadrupole                           0.0000000003
     Magnetic Dipole                               0.0000048009
     Total Oscillator Strength                     0.0000048012

     Occ.    5  a   ---  Virt.   13  a   -0.20467 X
     Occ.    5  a   ---  Virt.   17  a   -0.06448 X
     Occ.    6  a   ---  Virt.   12  a    0.20735 X
     Occ.    6  a   ---  Virt.   18  a    0.06457 X
     Occ.    8  a   ---  Virt.   15  a   -0.66221 X
     Occ.    8  a   ---  Virt.   21  a    0.07296 X
     Occ.    8  a   ---  Virt.   24  a   -0.06226 X
     Occ.    9  a   ---  Virt.   14  a    0.67005 X
     Occ.    9  a   ---  Virt.   20  a   -0.07311 X
     Occ.    9  a   ---  Virt.   25  a    0.06277 X
  ----------------------------------------------------------------------------
  Root  14 singlet a              0.482257348 a.u.               13.1229 eV 
  ----------------------------------------------------------------------------
     Transition Moments    X -0.00001   Y  0.00000   Z  0.00000
     Transition Moments   XX  0.00000  XY  0.00000  XZ -3.03446
     Transition Moments   YY  0.00000  YZ  1.38943  ZZ -0.00000
     Dipole Oscillator Strength                    0.0000000000
     Electric Quadrupole                           0.0000066526
     Magnetic Dipole                               0.0000039528
     Total Oscillator Strength                     0.0000106055

     Occ.    4  a   ---  Virt.   12  a    0.06017 X
     Occ.    5  a   ---  Virt.   11  a   -0.09806 X
     Occ.    5  a   ---  Virt.   13  a   -0.22254 X
     Occ.    6  a   ---  Virt.   12  a   -0.21991 X
     Occ.    7  a   ---  Virt.   14  a    0.15250 X
     Occ.    8  a   ---  Virt.   10  a    0.10251 X
     Occ.    8  a   ---  Virt.   15  a   -0.65439 X
     Occ.    9  a   ---  Virt.   14  a   -0.64631 X
  ----------------------------------------------------------------------------
  Root  15 singlet a              0.482266973 a.u.               13.1232 eV 
  ----------------------------------------------------------------------------
     Transition Moments    X -0.00000   Y  0.00000   Z  0.00000
     Transition Moments   XX -0.00088  XY -3.03340  XZ -0.00000
     Transition Moments   YY -1.38819  YZ  0.00000  ZZ  1.38756
     Dipole Oscillator Strength                    0.0000000000
     Electric Quadrupole                           0.0000066466
     Magnetic Dipole                               0.0000039622
     Total Oscillator Strength                     0.0000106088

     Occ.    4  a   ---  Virt.   13  a    0.06001 X
     Occ.    5  a   ---  Virt.   12  a   -0.22122 X
     Occ.    6  a   ---  Virt.   11  a   -0.09871 X
     Occ.    6  a   ---  Virt.   13  a    0.22123 X
     Occ.    7  a   ---  Virt.   15  a    0.15184 X
     Occ.    8  a   ---  Virt.   14  a   -0.65047 X
     Occ.    9  a   ---  Virt.   10  a    0.10241 X
     Occ.    9  a   ---  Virt.   15  a    0.65033 X
  ----------------------------------------------------------------------------
  Root  16 singlet a              0.503207696 a.u.               13.6930 eV 
  ----------------------------------------------------------------------------
     Transition Moments    X  0.00013   Y -0.64534   Z -0.00000
     Transition Moments   XX -0.00000  XY  0.00000  XZ -0.00003
     Transition Moments   YY  0.00000  YZ  0.00002  ZZ -0.00000
     Dipole Oscillator Strength                    0.1397125544
     Electric Quadrupole                           0.0000000000
     Magnetic Dipole                               0.0000000000
     Total Oscillator Strength                     0.1397125544

     Occ.    6  a   ---  Virt.   10  a   -0.86486 X
     Occ.    6  a   ---  Virt.   19  a   -0.09506 X
     Occ.    7  a   ---  Virt.   13  a    0.14685 X
     Occ.    8  a   ---  Virt.   18  a    0.07490 X
     Occ.    9  a   ---  Virt.   11  a    0.31500 X
     Occ.    9  a   ---  Virt.   16  a   -0.31703 X
     Occ.    9  a   ---  Virt.   17  a   -0.07477 X

              Target root =      1
          Target symmetry = none
      Ground state energy =    -79.795095703417
        Excitation energy =      0.388017955250
     Excited state energy =    -79.407077748167

  stored tddft:energy   -79.407077748167396     

 Task  times  cpu:      147.2s     wall:      147.2s
 Summary of allocated global arrays
-----------------------------------
  No active global arrays


MA_summarize_allocated_blocks: starting scan ...
MA_summarize_allocated_blocks: scan completed: 0 heap blocks, 0 stack blocks
MA usage statistics:

	allocation statistics:
					      heap	     stack
					      ----	     -----
	current number of blocks	         0	         0
	maximum number of blocks	        17	        60
	current total bytes		         0	         0
	maximum total bytes		  10525120	  22513000
	maximum total K-bytes		     10526	     22513
	maximum total M-bytes		        11	        23


                                NWChem Input Module
                                -------------------




                                     CITATION
                                     --------
                Please cite the following reference when publishing
                           results obtained with NWChem:

          E. Apra, E. J. Bylaska, W. A. de Jong, N. Govind, K. Kowalski,
       T. P. Straatsma, M. Valiev, H. J. J. van Dam, Y. Alexeev, J. Anchell,
       V. Anisimov, F. W. Aquino, R. Atta-Fynn, J. Autschbach, N. P. Bauman,
     J. C. Becca, D. E. Bernholdt, K. Bhaskaran-Nair, S. Bogatko, P. Borowski,
         J. Boschen, J. Brabec, A. Bruner, E. Cauet, Y. Chen, G. N. Chuev,
      C. J. Cramer, J. Daily, M. J. O. Deegan, T. H. Dunning Jr., M. Dupuis,
   K. G. Dyall, G. I. Fann, S. A. Fischer, A. Fonari, H. Fruchtl, L. Gagliardi,
      J. Garza, N. Gawande, S. Ghosh, K. Glaesemann, A. W. Gotz, J. Hammond,
       V. Helms, E. D. Hermes, K. Hirao, S. Hirata, M. Jacquelin, L. Jensen,
   B. G. Johnson, H. Jonsson, R. A. Kendall, M. Klemm, R. Kobayashi, V. Konkov,
      S. Krishnamoorthy, M. Krishnan, Z. Lin, R. D. Lins, R. J. Littlefield,
      A. J. Logsdail, K. Lopata, W. Ma, A. V. Marenich, J. Martin del Campo,
   D. Mejia-Rodriguez, J. E. Moore, J. M. Mullin, T. Nakajima, D. R. Nascimento,
    J. A. Nichols, P. J. Nichols, J. Nieplocha, A. Otero-de-la-Roza, B. Palmer,
    A. Panyala, T. Pirojsirikul, B. Peng, R. Peverati, J. Pittner, L. Pollack,
   R. M. Richard, P. Sadayappan, G. C. Schatz, W. A. Shelton, D. W. Silverstein,
   D. M. A. Smith, T. A. Soares, D. Song, M. Swart, H. L. Taylor, G. S. Thomas,
            V. Tipparaju, D. G. Truhlar, K. Tsemekhman, T. Van Voorhis,
      A. Vazquez-Mayagoitia, P. Verma, O. Villa, A. Vishnu, K. D. Vogiatzis,
        D. Wang, J. H. Weare, M. J. Williamson, T. L. Windus, K. Wolinski,
        A. T. Wong, Q. Wu, C. Yang, Q. Yu, M. Zacharias, Z. Zhang, Y. Zhao,
                                and R. J. Harrison
                        "NWChem: Past, present, and future
                         J. Chem. Phys. 152, 184102 (2020)
                               doi:10.1063/5.0004997

                                      AUTHORS
                                      -------
  E. Apra, E. J. Bylaska, N. Govind, K. Kowalski, M. Valiev, D. Mejia-Rodriguez,
       A. Kunitsa, N. P. Bauman, A. Panyala, W. A. de Jong, T. P. Straatsma,
   H. J. J. van Dam, D. Wang, T. L. Windus, J. Hammond, J. Autschbach, A. Woods,
    K. Bhaskaran-Nair, J. Brabec, K. Lopata, S. A. Fischer, S. Krishnamoorthy,
     M. Jacquelin, W. Ma, M. Klemm, O. Villa, Y. Chen, V. Anisimov, F. Aquino,
     S. Hirata, M. T. Hackler, E. Hermes, L. Jensen, J. E. Moore, J. C. Becca,
      V. Konjkov, T. Risthaus, M. Malagoli, A. Marenich, A. Otero-de-la-Roza,
        J. Mullin, P. Nichols, R. Peverati, J. Pittner, Y. Zhao, P.-D. Fan,
        A. Fonari, M. J. Williamson, R. J. Harrison, J. R. Rehr, M. Dupuis,
     D. Silverstein, D. M. A. Smith, J. Nieplocha, V. Tipparaju, M. Krishnan,
     B. E. Van Kuiken, A. Vazquez-Mayagoitia, M. Swart, Q. Wu, T. Van Voorhis,
     A. A. Auer, M. Nooijen, L. D. Crosby, E. Brown, G. Cisneros, G. I. Fann,
   H. Fruchtl, J. Garza, K. Hirao, R. A. Kendall, J. A. Nichols, K. Tsemekhman,
    K. Wolinski, J. Anchell, D. E. Bernholdt, P. Borowski, T. Clark, D. Clerc,
   H. Dachsel, M. J. O. Deegan, K. Dyall, D. Elwood, E. Glendening, M. Gutowski,
   A. C. Hess, J. Jaffe, B. G. Johnson, J. Ju, R. Kobayashi, R. Kutteh, Z. Lin,
   R. Littlefield, X. Long, B. Meng, T. Nakajima, S. Niu, L. Pollack, M. Rosing,
   K. Glaesemann, G. Sandrone, M. Stave, H. Taylor, G. Thomas, J. H. van Lenthe,
                               A. T. Wong, Z. Zhang.

 Total times  cpu:      147.3s     wall:      147.3s
