16
3-pentanone C2v AA starting guess (PBE0/6-311G* bond lengths; C2 // z, plane = yz)
C      0.00000000     2.53665715     0.06248766
C      0.00000000     1.28823369    -0.79961056
C      0.00000000     0.00000000     0.00000000
O      0.00000000     0.00000000     1.20694000
C      0.00000000    -1.28823369    -0.79961056
C      0.00000000    -2.53665715     0.06248766
H      0.00000000     3.42544389    -0.56851006
H     -0.88703947     2.55241436     0.69574328
H      0.88703947     2.55241436     0.69574328
H      0.88461564     1.30378733    -1.43625273
H     -0.88461564     1.30378733    -1.43625273
H      0.88461564    -1.30378733    -1.43625273
H     -0.88461564    -1.30378733    -1.43625273
H      0.00000000    -3.42544389    -0.56851006
H      0.88703947    -2.55241436     0.69574328
H     -0.88703947    -2.55241436     0.69574328
