28
PBE0/6-311G* optimized
S                     1.59925169    -1.52072218     0.00000000
S                    -1.59925169     1.52072218     0.00000000
O                    -2.25050473    -1.20273505     0.00000000
O                     2.25050473     1.20273505     0.00000000
C                     0.07100531    -0.67212539     0.00000000
C                    -0.07100531     0.67212539     0.00000000
C                    -0.63307962    -2.98234488     0.00000000
C                     0.63307962     2.98234488     0.00000000
C                     0.75802883    -3.08046687     0.00000000
C                    -0.75802883     3.08046687     0.00000000
C                    -1.10144370    -1.59538883     0.00000000
C                     1.10144370     1.59538883     0.00000000
C                    -1.43068990    -4.12202778     0.00000000
C                     1.43068990     4.12202778     0.00000000
C                     1.37684947    -4.32359735     0.00000000
C                    -1.37684947     4.32359735     0.00000000
C                    -0.82055130    -5.36650007     0.00000000
C                     0.82055130     5.36650007     0.00000000
C                     0.57361115    -5.45897355     0.00000000
C                    -0.57361115     5.45897355     0.00000000
H                    -2.51056594    -4.01086567     0.00000000
H                     2.51056594     4.01086567     0.00000000
H                     2.45862208    -4.41112518     0.00000000
H                    -2.45862208     4.41112518     0.00000000
H                    -1.42129337    -6.26986773     0.00000000
H                     1.42129337     6.26986773     0.00000000
H                     1.04413969    -6.43759942     0.00000000
H                    -1.04413969     6.43759942     0.00000000
