13
PBE0/6-311G* optimized
C     -2.00696508     0.66517781    -0.00119277
N     -2.09976926    -0.67358490    -0.00071195
C     -0.97144748    -1.37091616     0.00003939
C      0.23670720    -0.69405542     0.00009940
N      1.56846509    -1.02736475     0.00018344
H      1.96817147    -1.94981725    -0.00043202
C      2.25442681     0.15541793     0.00020704
N      1.49877185     1.21635416     0.00029246
C      0.21760327     0.71734280     0.00002968
N     -0.91425193     1.41509310    -0.00064399
H     -2.95462971     1.19746345    -0.00218606
H     -1.05223129    -2.45651999     0.00058783
H      3.33686519     0.17020599    -0.00000633
