13
CACTUS 3D  https://cactus.nci.nih.gov/chemical/structure/c1ncc2%5BnH%5Dcnc2n1/sdf?get3d=true
C     -2.06160000     0.64760000     0.00020000
N     -2.07600000    -0.67320000     0.00010000
C     -0.95150000    -1.37240000     0.00000000
C      0.25540000    -0.69040000    -0.00000000
N      1.58570000    -1.05190000    -0.00010000
H      1.93650000    -1.95620000    -0.00070000
C      2.31060000     0.09030000    -0.00010000
N      1.51880000     1.12610000     0.00000000
C      0.23550000     0.71900000     0.00010000
N     -0.94420000     1.34090000     0.00010000
H     -3.00240000     1.17780000    -0.00440000
H     -0.97410000    -2.45210000     0.00030000
H      3.38950000     0.13740000     0.00020000
