16
3-pentanone C2v AA PBE0/6-311G* NWChem optimized (E = -271.51989862 Ha)
 C      0.00000000     2.53631910     0.13461532
 C      0.00000000    -2.53631910     0.13461532
 C      0.00000000     1.28911810    -0.72919769
 C      0.00000000    -1.28911810    -0.72919769
 C      0.00000000     0.00000000     0.06965728
 O      0.00000000     0.00000000     1.27660755
 H      0.00000000     3.43925645    -0.48117669
 H      0.00000000    -3.43925645    -0.48117669
 H      0.87765934     2.56433867     0.78373887
 H     -0.87765934    -2.56433867     0.78373887
 H      0.87765934    -2.56433867     0.78373887
 H     -0.87765934     2.56433867     0.78373887
 H      0.86938045     1.27148903    -1.39993208
 H     -0.86938045    -1.27148903    -1.39993208
 H      0.86938045    -1.27148903    -1.39993208
 H     -0.86938045     1.27148903    -1.39993208
