
-- general section
dt 0.05 -- au
t_end 1000  -- au
eField_path eField.csv

-- rt-tddft portion
start quantum
    start rttddft
        start geometry
            O      0.0000000000       0.0000000000       -0.1302052882
            H      1.4891244004       0.0000000000        1.0332262019
            H     -1.4891244004       0.0000000000        1.0332262019
        end geometry
        units bohr
        check_tolerance 1e-12
        charge 0
        spin 0
        basis 6-31g
        xc pbe0
        resplimit 1e-20
        propagator magnus2
        pc_convergence 1e-12
        maxiter 200
        -- transform 
    end rttddft

    start files
        -- start chkfile
        --     frequency 100
        --     path chkfile.npz
        -- end chkfile
        pField_path pField.csv
        pField_Transform_path pField-transformed.npz
        eField_vs_pField_path output.png
        eV_spectrum_path spectrum.png
    end files

    start source
        shape pulse
        peak_time_au 200
        width_steps 1000
        wavelength_nm 400 -- nm
        intensity_au 5e-5
        dir z
    end source  
end quantum
