12
CACTUS 3D  https://cactus.nci.nih.gov/chemical/structure/c1ccccc1/sdf?get3d=true
C      0.16410000    -1.37260000    -0.00020000
C     -1.10660000    -0.82840000     0.00010000
C     -1.27070000     0.54420000    -0.00000000
C     -0.16410000     1.37260000     0.00000000
C      1.10660000     0.82840000     0.00060000
C      1.27070000    -0.54420000    -0.00070000
H      0.29230000    -2.44490000     0.00440000
H     -1.97120000    -1.47560000     0.00000000
H     -2.26350000     0.96930000    -0.00050000
H     -0.29230000     2.44490000    -0.00080000
H      1.97120000     1.47560000    -0.00010000
H      2.26350000    -0.96930000     0.00020000
