16
CACTUS 3D  https://cactus.nci.nih.gov/chemical/structure/CCCCC%3DO/sdf?get3d=true
C      3.03730000    -0.39040000     0.12720000
C      1.81290000     0.52520000     0.07050000
C      0.55200000    -0.32040000    -0.11900000
C     -0.67240000     0.59520000    -0.17570000
C     -1.91440000    -0.23770000    -0.36240000
O     -2.83230000    -0.13570000     0.41560000
H      3.93560000     0.21210000     0.26220000
H      2.93510000    -1.08250000     0.96300000
H      3.11370000    -0.95310000    -0.80320000
H      1.73660000     1.08790000     1.00090000
H      1.91520000     1.21740000    -0.76530000
H      0.62830000    -0.88310000    -1.04940000
H      0.44970000    -1.01250000     0.71680000
H     -0.74870000     1.15790000     0.75470000
H     -0.57010000     1.28740000    -1.01160000
H     -1.98340000    -0.92580000    -1.19190000
