start molecule
  O      0.0000000000       0.0000000000       -0.1302052882
  H      1.4891244004       0.0000000000        1.0332262019
  H     -1.4891244004       0.0000000000        1.0332262019
end molecule

units bohr
pc_convergence 1e-12
check_tolerance 1e-12
maxiter 200
charge 0
spin 0
basis 6-31g 
xc pbe0
resplimit 1e-20
propagator magnus2