start molecule
  O      0.0000000000       0.0000000000       -0.1302052882
  H      1.4891244004       0.0000000000        1.0332262019
  H     -1.4891244004       0.0000000000        1.0332262019
end molecule

units bohr
pc_convergence 1e-12
check_tolerance 1e-12
maxiter 200
dt 0.1
t_end 4000

charge 0
spin 0
basis 6-31g 
xc pbe0
resplimit 1e-20
propagator magnus2

intensity_au
peak_time_au
width_steps
shape kick 


-- RT-TDDFT
dt
t_end
restart
eField_path
pField_path
pField_Transform_path
chkfile_path
eField_vs_pField_path
eV_spectrum_path
molecule_coords
basis
charge
spin
xc
tol_zero
chkfile
wavelength_nm
peak_time_au
width_steps
dir
qif
propagator
max_iter
pc_convergence

-- MEEP
