16
PBE0/6-311G* optimized
N      2.95005428     1.01368345    -0.14577695
C      1.65943150     0.56542203    -0.05297557
N      0.68054659     1.42746671    -0.03311098
C     -0.53057932     0.82843386    -0.01395617
N     -1.73444967     1.46571803    -0.00497438
H     -1.86644312     2.46264874    -0.02439881
C     -2.70107122     0.48732073     0.02720709
N     -2.20515072    -0.71462946     0.04061080
C     -0.84503654    -0.52441120     0.01595242
C      0.22698570    -1.47918359     0.00107893
O      0.22332061    -2.68669579     0.00564051
N      1.47646972    -0.78503313    -0.03646517
H      2.27137597    -1.40161295    -0.12250502
H      3.03142116     2.00695847    -0.00194484
H      3.66837899     0.47299391     0.30715477
H     -3.75442831     0.73156635     0.03890183
