16
CACTUS 3D  https://cactus.nci.nih.gov/chemical/structure/Nc1nc2%5BnH%5Dcnc2c%28%3DO%29%5BnH%5D1/sdf?get3d=true
N      2.99600000     1.05330000     0.00100000
C      1.72330000     0.54030000     0.00080000
N      0.70180000     1.36740000     0.00030000
C     -0.55660000     0.91240000     0.00010000
N     -1.78750000     1.51060000    -0.00040000
H     -1.96150000     2.46490000    -0.00100000
C     -2.72530000     0.51910000    -0.00030000
N     -2.13910000    -0.64230000     0.00020000
C     -0.79520000    -0.46660000     0.00050000
C      0.31310000    -1.34550000     0.00100000
O      0.15220000    -2.55400000     0.00130000
N      1.55490000    -0.81230000    -0.00440000
H      2.33040000    -1.39510000    -0.00420000
H      3.13180000     2.01380000     0.00080000
H      3.75990000     0.45550000     0.00540000
H     -3.79400000     0.67530000    -0.00060000
