16
3-Pentanone (NWChem optimized conformation 6-311G*/PBE0)
C    -0.02585501    -2.53946034    -0.50367261
C    -0.44363264    -1.37313018     0.37206036
C    -0.15091510    -0.01857470    -0.24303723
O     0.47542696     0.09277836    -1.26870597
C    -0.68887019     1.18842474     0.50043570
C    -0.21762616     2.51221721    -0.07166649
H     1.03999621    -2.49248776    -0.73476088
H    -0.56010095    -2.52751457    -1.45645780
H    -0.22977069    -3.49303368    -0.01017758
H    -1.51177601    -1.41921394     0.62079454
H     0.07043999    -1.40846680     1.34260507
H    -0.42389703     1.09144241     1.56120751
H    -1.78548325     1.12119501     0.47976102
H    -0.65541451     3.35273246     0.47266842
H    -0.49243996     2.60284823    -1.12425761
H     0.86990233     2.60003036    -0.01678504