 argument  1 = opt.nw



============================== echo of input deck ==============================
echo
start ch4_opt
title "CH4 geometry optimization, PBE0/6-311G* Cartesian"
scratch_dir /Users/bldrdge1/Downloads/repos/PlasMol/jobs/final/Step_1/ch4
permanent_dir /Users/bldrdge1/Downloads/repos/PlasMol/jobs/final/Step_1/ch4
memory total 2500 mb
charge 0

geometry units angstroms noautosym noautoz
  C      0.00000000    -0.00000000     0.00000000
  H      0.00000000    -0.89000000    -0.62930000
  H      0.00000000     0.89000000    -0.62930000
  H     -0.89000000    -0.00000000     0.62930000
  H      0.89000000    -0.00000000     0.62930000
end

basis cartesian
  * library 6-311G*
end

dft
  xc pbe0
  mult 1
  grid fine
  iterations 100
  convergence energy 1.0e-7
end

driver
  maxiter 120
end

task dft optimize
================================================================================


                                         
                                         


             Northwest Computational Chemistry Package (NWChem) 7.2.3
             --------------------------------------------------------


                    Environmental Molecular Sciences Laboratory
                       Pacific Northwest National Laboratory
                                Richland, WA 99352

                              Copyright (c) 1994-2022
                       Pacific Northwest National Laboratory
                            Battelle Memorial Institute

             NWChem is an open-source computational chemistry package
                        distributed under the terms of the
                      Educational Community License (ECL) 2.0
             A copy of the license is included with this distribution
                              in the LICENSE.TXT file

                                  ACKNOWLEDGMENT
                                  --------------

            This software and its documentation were developed at the
            EMSL at Pacific Northwest National Laboratory, a multiprogram
            national laboratory, operated for the U.S. Department of Energy
            by Battelle under Contract Number DE-AC05-76RL01830. Support
            for this work was provided by the Department of Energy Office
            of Biological and Environmental Research, Office of Basic
            Energy Sciences, and the Office of Advanced Scientific Computing.


           Job information
           ---------------

    hostname        = CAS-X1HWX6T0HY
    program         = /opt/homebrew/bin/nwchem
    date            = Wed Sep 23 13:15:13 2026

    compiled        = Thu_Dec_26_16:10:57_2024
    source          = /private/tmp/nwchem-20241226-24138-dbs3bh/nwchem-7.2.3
    nwchem branch   = 7.2.3
    nwchem revision = d690e065
    ga revision     = 5.8.0
    use scalapack   = T
    input           = opt.nw
    prefix          = ch4_opt.
    data base       = /Users/bldrdge1/Downloads/repos/PlasMol/jobs/final/Step_1/ch4/ch4_opt.db
    status          = startup
    nproc           =        1
    time left       =     -1s



           Memory information
           ------------------

    heap     =   81919996 doubles =    625.0 Mbytes
    stack    =   81920001 doubles =    625.0 Mbytes
    global   =  163840000 doubles =   1250.0 Mbytes (distinct from heap & stack)
    total    =  327679997 doubles =   2500.0 Mbytes
    verify   = yes
    hardfail = no 


           Directory information
           ---------------------

  0 permanent = /Users/bldrdge1/Downloads/repos/PlasMol/jobs/final/Step_1/ch4
  0 scratch   = /Users/bldrdge1/Downloads/repos/PlasMol/jobs/final/Step_1/ch4




                                NWChem Input Module
                                -------------------


                 CH4 geometry optimization, PBE0/6-311G* Cartesian
                 -------------------------------------------------

 Scaling coordinates for geometry "geometry" by  1.889725989
 (inverse scale =  0.529177249)



                             Geometry "geometry" -> ""
                             -------------------------

 Output coordinates in angstroms (scale by  1.889725989 to convert to a.u.)

  No.       Tag          Charge          X              Y              Z
 ---- ---------------- ---------- -------------- -------------- --------------
    1 C                    6.0000     0.00000000     0.00000000     0.00000000
    2 H                    1.0000     0.00000000    -0.89000000    -0.62930000
    3 H                    1.0000     0.00000000     0.89000000    -0.62930000
    4 H                    1.0000    -0.89000000     0.00000000     0.62930000
    5 H                    1.0000     0.89000000     0.00000000     0.62930000

      Atomic Mass 
      ----------- 

      C                 12.000000
      H                  1.007825


 Effective nuclear repulsion energy (a.u.)      13.4352856776

            Nuclear Dipole moment (a.u.) 
            ----------------------------
        X                 Y               Z
 ---------------- ---------------- ----------------
     0.0000000000     0.0000000000     0.0000000000


            XYZ format geometry
            -------------------
     5
 geometry
 C                     0.00000000     0.00000000     0.00000000
 H                     0.00000000    -0.89000000    -0.62930000
 H                     0.00000000     0.89000000    -0.62930000
 H                    -0.89000000     0.00000000     0.62930000
 H                     0.89000000     0.00000000     0.62930000

 ==============================================================================
                                internuclear distances
 ------------------------------------------------------------------------------
       center one      |      center two      | atomic units |  angstroms
 ------------------------------------------------------------------------------
    2 H                |   1 C                |     2.05982  |     1.09001
    3 H                |   1 C                |     2.05982  |     1.09001
    4 H                |   1 C                |     2.05982  |     1.09001
    5 H                |   1 C                |     2.05982  |     1.09001
 ------------------------------------------------------------------------------
                         number of included internuclear distances:          4
 ==============================================================================



 ==============================================================================
                                 internuclear angles
 ------------------------------------------------------------------------------
        center 1       |       center 2       |       center 3       |  degrees
 ------------------------------------------------------------------------------
    2 H                |   1 C                |   3 H                |   109.47
    2 H                |   1 C                |   4 H                |   109.47
    2 H                |   1 C                |   5 H                |   109.47
    3 H                |   1 C                |   4 H                |   109.47
    3 H                |   1 C                |   5 H                |   109.47
    4 H                |   1 C                |   5 H                |   109.47
 ------------------------------------------------------------------------------
                            number of included internuclear angles:          6
 ==============================================================================



  library name resolved from: .nwchemrc
  library file name is: </opt/homebrew/Cellar/nwchem/7.2.3_1/share/nwchem/libraries/>
  


 Summary of "ao basis" -> "" (cartesian)
 ------------------------------------------------------------------------------
       Tag                 Description            Shells   Functions and Types
 ---------------- ------------------------------  ------  ---------------------
 *                          6-311G*                   on all atoms 




                           NWChem Geometry Optimization
                           ----------------------------




                 CH4 geometry optimization, PBE0/6-311G* Cartesian


 maximum gradient threshold         (gmax) =   0.000450
 rms gradient threshold             (grms) =   0.000300
 maximum cartesian step threshold   (xmax) =   0.001800
 rms cartesian step threshold       (xrms) =   0.001200
 fixed trust radius                (trust) =   0.300000
 maximum step size to saddle      (sadstp) =   0.100000
 energy precision                  (eprec) =   5.0D-06
 maximum number of steps          (nptopt) =  120
 initial hessian option           (inhess) =    0
 line search option               (linopt) =    1
 hessian update option            (modupd) =    1
 saddle point option              (modsad) =    0
 initial eigen-mode to follow     (moddir) =    0
 initial variable to follow       (vardir) =    0
 follow first negative mode     (firstneg) =    T
 apply conjugacy                    (opcg) =    F
 source of zmatrix                         =           


          -------------------
          Energy Minimization
          -------------------


 Using diagonal initial Hessian 

          --------
          Step   0
          --------


                         Geometry "geometry" -> "geometry"
                         ---------------------------------

 Output coordinates in angstroms (scale by  1.889725989 to convert to a.u.)

  No.       Tag          Charge          X              Y              Z
 ---- ---------------- ---------- -------------- -------------- --------------
    1 C                    6.0000     0.00000000     0.00000000     0.00000000
    2 H                    1.0000     0.00000000    -0.89000000    -0.62930000
    3 H                    1.0000     0.00000000     0.89000000    -0.62930000
    4 H                    1.0000    -0.89000000     0.00000000     0.62930000
    5 H                    1.0000     0.89000000     0.00000000     0.62930000

      Atomic Mass 
      ----------- 

      C                 12.000000
      H                  1.007825


 Effective nuclear repulsion energy (a.u.)      13.4352856776

            Nuclear Dipole moment (a.u.) 
            ----------------------------
        X                 Y               Z
 ---------------- ---------------- ----------------
     0.0000000000     0.0000000000     0.0000000000


                                 NWChem DFT Module
                                 -----------------


                 CH4 geometry optimization, PBE0/6-311G* Cartesian


                      Basis "ao basis" -> "ao basis" (cartesian)
                      -----
  C (Carbon)
  ----------
            Exponent  Coefficients 
       -------------- ---------------------------------------------------------
  1 S  4.56324000E+03  0.001967
  1 S  6.82024000E+02  0.015231
  1 S  1.54973000E+02  0.076127
  1 S  4.44553000E+01  0.260801
  1 S  1.30290000E+01  0.616462
  1 S  1.82773000E+00  0.221006

  2 S  2.09642000E+01  0.114660
  2 S  4.80331000E+00  0.919999
  2 S  1.45933000E+00 -0.003031

  3 P  2.09642000E+01  0.040249
  3 P  4.80331000E+00  0.237594
  3 P  1.45933000E+00  0.815854

  4 S  4.83456000E-01  1.000000

  5 P  4.83456000E-01  1.000000

  6 S  1.45585000E-01  1.000000

  7 P  1.45585000E-01  1.000000

  8 D  6.26000000E-01  1.000000

  H (Hydrogen)
  ------------
            Exponent  Coefficients 
       -------------- ---------------------------------------------------------
  1 S  3.38650000E+01  0.025494
  1 S  5.09479000E+00  0.190373
  1 S  1.15879000E+00  0.852161

  2 S  3.25840000E-01  1.000000

  3 S  1.02741000E-01  1.000000



 Summary of "ao basis" -> "ao basis" (cartesian)
 ------------------------------------------------------------------------------
       Tag                 Description            Shells   Functions and Types
 ---------------- ------------------------------  ------  ---------------------
 C                          6-311G*                  8       19   4s3p1d
 H                          6-311G*                  3        3   3s




 Summary of "ao basis" -> "ao basis" (cartesian)
 ------------------------------------------------------------------------------
       Tag                 Description            Shells   Functions and Types
 ---------------- ------------------------------  ------  ---------------------
 C                          6-311G*                  8       19   4s3p1d
 H                          6-311G*                  3        3   3s


  Caching 1-el integrals 

            General Information
            -------------------
          SCF calculation type: DFT
          Wavefunction type:  closed shell.
          No. of atoms     :     5
          No. of electrons :    10
           Alpha electrons :     5
            Beta electrons :     5
          Charge           :     0
          Spin multiplicity:     1
          Use of symmetry is: off; symmetry adaption is: off
          Maximum number of iterations: 100
          AO basis - number of functions:    31
                     number of shells:    20
          Convergence on energy requested:  1.00D-07
          Convergence on density requested:  1.00D-05
          Convergence on gradient requested:  5.00D-04

              XC Information
              --------------
                         PBE0 Method XC Functional
                     Hartree-Fock (Exact) Exchange  0.250          
          PerdewBurkeErnzerhof Exchange Functional  0.750          
            Perdew 1991 LDA Correlation Functional  1.000 local    
           PerdewBurkeErnz. Correlation Functional  1.000 non-local

             Grid Information
             ----------------
          Grid used for XC integration:  fine      
          Radial quadrature: Mura-Knowles        
          Angular quadrature: Lebedev. 
          Tag              B.-S. Rad. Rad. Pts. Rad. Cut. Ang. Pts.
          ---              ---------- --------- --------- ---------
          C                   0.70       70           7.0       590
          H                   0.35       60           8.0       590
          Grid pruning is: on 
          Number of quadrature shells:   310
          Spatial weights used:  Erf1

          Convergence Information
          -----------------------
          Convergence aids based upon iterative change in 
          total energy or number of iterations. 
          Levelshifting, if invoked, occurs when the 
          HOMO/LUMO gap drops below (HL_TOL):  1.00D-02
          DIIS, if invoked, will attempt to extrapolate 
          using up to (NFOCK): 10 stored Fock matrices.

                    Damping( 0%)  Levelshifting(0.5)       DIIS
                  --------------- ------------------- ---------------
          dE  on:    start            ASAP                start   
          dE off:    2 iters        100 iters           100 iters 


      Screening Tolerance Information
      -------------------------------
          Density screening/tol_rho:  1.00D-10
          AO Gaussian exp screening on grid/accAOfunc:  16
          CD Gaussian exp screening on grid/accCDfunc:  20
          XC Gaussian exp screening on grid/accXCfunc:  20
          Schwarz screening/accCoul:  1.00D-08


      Superposition of Atomic Density Guess
      -------------------------------------

 Sum of atomic energies:         -39.66778975

      Non-variational initial energy
      ------------------------------

 Total energy =     -40.246316
 1-e energy   =     -78.271329
 2-e energy   =      24.589727
 HOMO         =      -0.519958
 LUMO         =       0.091303

  WARNING: movecs_in_org=atomic not equal to movecs_in=/Users/bldrdge1/Downloads/repos/PlasMol/jobs/final/Step_1/ch4/ch4_opt.movecs
   Time after variat. SCF:      0.1
   Time prior to 1st pass:      0.1

 Integral file          = /Users/bldrdge1/Downloads/repos/PlasMol/jobs/final/Step_1/ch4/ch4_opt.aoints.0
 Record size in doubles =  65536        No. of integs per rec  =  43688
 Max. records in memory =      6        Max. records in file   = 162639
 No. of bits per label  =      8        No. of bits per value  =     64


 #quartets = 2.216D+04 #integrals = 8.329D+04 #direct =  0.0% #cached =100.0%

  avail0,avail1,avail0-avail1                 85584                85584                    0
  avail0,avail1,avail0-avail1                 85584                85600                  -16
  avail0,avail1,avail0-avail1                 85584                85600                  -16
  avail0,avail1,avail0-avail1                 85584                85600                  -16

 Grid_pts file          = /Users/bldrdge1/Downloads/repos/PlasMol/jobs/final/Step_1/ch4/ch4_opt.gridpts.0
 Record size in doubles =  12289        No. of grid_pts per rec  =   3070
 Max. records in memory =     67        Max. recs in file   =    867181


           Memory utilization after 1st SCF pass: 
           Heap Space remaining (MW):       80.70            80701372
          Stack Space remaining (MW):       81.92            81919660

   convergence    iter        energy       DeltaE   RMS-Dens  Diis-err    time
 ---------------- ----- ----------------- --------- --------- ---------  ------
 d= 0,ls=0.0,diis     1    -40.4566612971 -5.39D+01  5.80D-03  1.23D-01     0.3
 d= 0,ls=0.0,diis     2    -40.4644536891 -7.79D-03  2.17D-03  9.35D-03     0.4
 d= 0,ls=0.0,diis     3    -40.4647727366 -3.19D-04  1.10D-03  6.36D-03     0.5
 d= 0,ls=0.0,diis     4    -40.4655359695 -7.63D-04  2.31D-05  2.07D-06     0.7
 d= 0,ls=0.0,diis     5    -40.4655362682 -2.99D-07  2.16D-06  1.39D-08     0.9
 d= 0,ls=0.0,diis     6    -40.4655362700 -1.83D-09  5.41D-08  5.38D-12     1.0


         Total DFT energy =      -40.465536270002
      One electron energy =      -79.827082884766
           Coulomb energy =       32.766992246678
    Exchange-Corr. energy =       -6.840731309522
 Nuclear repulsion energy =       13.435285677607

 Numeric. integr. density =       10.000000246746

     Total iterative time =      1.0s



                       DFT Final Molecular Orbital Analysis
                       ------------------------------------

 Vector    1  Occ=2.000000D+00  E=-1.020400D+01
              MO Center= -6.1D-15,  2.0D-14, -1.0D-14, r^2= 2.8D-02
   Bfn.  Coefficient  Atom+Function         Bfn.  Coefficient  Atom+Function  
  ----- ------------  ---------------      ----- ------------  ---------------
     1      0.563904  1 C  s                  2      0.460070  1 C  s          

 Vector    2  Occ=2.000000D+00  E=-7.148898D-01
              MO Center= -8.1D-12,  1.9D-11, -1.7D-11, r^2= 1.0D+00
   Bfn.  Coefficient  Atom+Function         Bfn.  Coefficient  Atom+Function  
  ----- ------------  ---------------      ----- ------------  ---------------
     6      0.448992  1 C  s                 10      0.314184  1 C  s          
     2     -0.167715  1 C  s                  1     -0.108434  1 C  s          
    20      0.086266  2 H  s                 23      0.086266  3 H  s          
    26      0.086266  4 H  s                 29      0.086266  5 H  s          
    21      0.075300  2 H  s                 24      0.075300  3 H  s          

 Vector    3  Occ=2.000000D+00  E=-4.040738D-01
              MO Center=  3.6D-07, -1.9D-07,  1.6D-01, r^2= 1.3D+00
   Bfn.  Coefficient  Atom+Function         Bfn.  Coefficient  Atom+Function  
  ----- ------------  ---------------      ----- ------------  ---------------
     7      0.283377  1 C  px                11      0.197685  1 C  px         
     3      0.173454  1 C  px                27     -0.163076  4 H  s          
    30      0.163076  5 H  s                  8      0.151488  1 C  py         
    26     -0.129189  4 H  s                 29      0.129189  5 H  s          
    12      0.105679  1 C  py                 4      0.092725  1 C  py         

 Vector    4  Occ=2.000000D+00  E=-4.040738D-01
              MO Center= -3.2D-08, -6.1D-08, -1.6D-01, r^2= 1.3D+00
   Bfn.  Coefficient  Atom+Function         Bfn.  Coefficient  Atom+Function  
  ----- ------------  ---------------      ----- ------------  ---------------
     8      0.283377  1 C  py                12      0.197685  1 C  py         
     4      0.173454  1 C  py                21     -0.163076  2 H  s          
    24      0.163076  3 H  s                  7     -0.151488  1 C  px         
    20     -0.129189  2 H  s                 23      0.129189  3 H  s          
    11     -0.105679  1 C  px                 3     -0.092725  1 C  px         

 Vector    5  Occ=2.000000D+00  E=-4.040631D-01
              MO Center= -3.2D-07,  2.5D-07,  1.5D-11, r^2= 1.3D+00
   Bfn.  Coefficient  Atom+Function         Bfn.  Coefficient  Atom+Function  
  ----- ------------  ---------------      ----- ------------  ---------------
     9      0.321328  1 C  pz                13      0.224162  1 C  pz         
     5      0.196684  1 C  pz                21     -0.130757  2 H  s          
    24     -0.130757  3 H  s                 27      0.130757  4 H  s          
    30      0.130757  5 H  s                 20     -0.103583  2 H  s          
    23     -0.103584  3 H  s                 26      0.103584  4 H  s          

 Vector    6  Occ=0.000000D+00  E= 6.695100D-02
              MO Center=  5.6D-10,  1.8D-09,  6.6D-10, r^2= 5.1D+00
   Bfn.  Coefficient  Atom+Function         Bfn.  Coefficient  Atom+Function  
  ----- ------------  ---------------      ----- ------------  ---------------
    10      2.193827  1 C  s                 22     -0.763034  2 H  s          
    25     -0.763034  3 H  s                 28     -0.763034  4 H  s          
    31     -0.763034  5 H  s                  6      0.180488  1 C  s          
     2     -0.105303  1 C  s                  1     -0.059393  1 C  s          
    21     -0.047574  2 H  s                 24     -0.047574  3 H  s          

 Vector    7  Occ=0.000000D+00  E= 1.394595D-01
              MO Center= -1.9D-05,  2.0D-04, -1.2D-08, r^2= 5.1D+00
   Bfn.  Coefficient  Atom+Function         Bfn.  Coefficient  Atom+Function  
  ----- ------------  ---------------      ----- ------------  ---------------
    22      1.240472  2 H  s                 25      1.240864  3 H  s          
    28     -1.240687  4 H  s                 31     -1.240649  5 H  s          
    13      1.165093  1 C  pz                 9      0.214953  1 C  pz         
     5      0.160199  1 C  pz                21      0.041767  2 H  s          
    24      0.041781  3 H  s                 27     -0.041775  4 H  s          

 Vector    8  Occ=0.000000D+00  E= 1.394598D-01
              MO Center= -3.2D-05, -8.7D-06,  7.6D-01, r^2= 4.5D+00
   Bfn.  Coefficient  Atom+Function         Bfn.  Coefficient  Atom+Function  
  ----- ------------  ---------------      ----- ------------  ---------------
    28      1.693045  4 H  s                 31     -1.692998  5 H  s          
    11      1.124223  1 C  px                22     -0.460678  2 H  s          
    25      0.460632  3 H  s                 12     -0.305890  1 C  py         
     7      0.207410  1 C  px                 3      0.154578  1 C  px         
    27      0.056984  4 H  s                 30     -0.056983  5 H  s          

 Vector    9  Occ=0.000000D+00  E= 1.394598D-01
              MO Center=  5.1D-05, -1.9D-04, -7.6D-01, r^2= 4.5D+00
   Bfn.  Coefficient  Atom+Function         Bfn.  Coefficient  Atom+Function  
  ----- ------------  ---------------      ----- ------------  ---------------
    22      1.693159  2 H  s                 25     -1.692884  3 H  s          
    12      1.124223  1 C  py                28      0.460518  4 H  s          
    31     -0.460792  5 H  s                 11      0.305890  1 C  px         
     8      0.207410  1 C  py                 4      0.154578  1 C  py         
    21      0.056988  2 H  s                 24     -0.056979  3 H  s          

 Vector   10  Occ=0.000000D+00  E= 2.945793D-01
              MO Center= -1.0D-06, -5.8D-07,  9.1D-13, r^2= 3.0D+00
   Bfn.  Coefficient  Atom+Function         Bfn.  Coefficient  Atom+Function  
  ----- ------------  ---------------      ----- ------------  ---------------
    13      1.333255  1 C  pz                21      0.741048  2 H  s          
    24      0.741051  3 H  s                 27     -0.741046  4 H  s          
    30     -0.741053  5 H  s                 22     -0.214152  2 H  s          
    25     -0.214153  3 H  s                 28      0.214151  4 H  s          
    31      0.214153  5 H  s                 20      0.053236  2 H  s          

 Vector   11  Occ=0.000000D+00  E= 2.945878D-01
              MO Center= -5.5D-08,  4.5D-07,  1.6D-01, r^2= 2.9D+00
   Bfn.  Coefficient  Atom+Function         Bfn.  Coefficient  Atom+Function  
  ----- ------------  ---------------      ----- ------------  ---------------
    12      1.323647  1 C  py                21      1.040360  2 H  s          
    24     -1.040358  3 H  s                 22     -0.300494  2 H  s          
    25      0.300494  3 H  s                 11      0.161138  1 C  px         
    27      0.126650  4 H  s                 30     -0.126652  5 H  s          
    20      0.074731  2 H  s                 23     -0.074731  3 H  s          

 Vector   12  Occ=0.000000D+00  E= 2.945878D-01
              MO Center=  1.1D-06,  1.3D-07, -1.6D-01, r^2= 2.9D+00
   Bfn.  Coefficient  Atom+Function         Bfn.  Coefficient  Atom+Function  
  ----- ------------  ---------------      ----- ------------  ---------------
    11      1.323647  1 C  px                27      1.040361  4 H  s          
    30     -1.040356  5 H  s                 28     -0.300495  4 H  s          
    31      0.300493  5 H  s                 12     -0.161138  1 C  py         
    21     -0.126653  2 H  s                 24      0.126648  3 H  s          
    26      0.074731  4 H  s                 29     -0.074731  5 H  s          

 Vector   13  Occ=0.000000D+00  E= 5.501844D-01
              MO Center=  1.2D-10,  1.1D-10, -1.4D-11, r^2= 2.7D+00
   Bfn.  Coefficient  Atom+Function         Bfn.  Coefficient  Atom+Function  
  ----- ------------  ---------------      ----- ------------  ---------------
    21      1.062562  2 H  s                 24      1.062562  3 H  s          
    27      1.062562  4 H  s                 30      1.062562  5 H  s          
    10     -0.733905  1 C  s                  6     -0.702787  1 C  s          
    22     -0.363036  2 H  s                 25     -0.363036  3 H  s          
    28     -0.363036  4 H  s                 31     -0.363036  5 H  s          

 Vector   14  Occ=0.000000D+00  E= 6.147860D-01
              MO Center= -1.4D-06,  1.2D-06,  1.4D-10, r^2= 2.9D+00
   Bfn.  Coefficient  Atom+Function         Bfn.  Coefficient  Atom+Function  
  ----- ------------  ---------------      ----- ------------  ---------------
    13      1.752509  1 C  pz                22      1.113614  2 H  s          
    25      1.113620  3 H  s                 28     -1.113621  4 H  s          
    31     -1.113613  5 H  s                  9     -1.079745  1 C  pz         
    21     -0.353782  2 H  s                 24     -0.353784  3 H  s          
    27      0.353784  4 H  s                 30      0.353782  5 H  s          

 Vector   15  Occ=0.000000D+00  E= 6.147896D-01
              MO Center=  9.9D-07,  2.7D-07,  2.6D-01, r^2= 2.9D+00
   Bfn.  Coefficient  Atom+Function         Bfn.  Coefficient  Atom+Function  
  ----- ------------  ---------------      ----- ------------  ---------------
    11      1.688881  1 C  px                28      1.517688  4 H  s          
    31     -1.517691  5 H  s                  7     -1.040540  1 C  px         
    27     -0.482158  4 H  s                 30      0.482159  5 H  s          
    12     -0.468016  1 C  py                22     -0.420574  2 H  s          
    25      0.420578  3 H  s                  8      0.288351  1 C  py         

 Vector   16  Occ=0.000000D+00  E= 6.147896D-01
              MO Center=  4.2D-07, -1.5D-06, -2.6D-01, r^2= 2.9D+00
   Bfn.  Coefficient  Atom+Function         Bfn.  Coefficient  Atom+Function  
  ----- ------------  ---------------      ----- ------------  ---------------
    12      1.688881  1 C  py                22      1.517692  2 H  s          
    25     -1.517687  3 H  s                  8     -1.040540  1 C  py         
    21     -0.482159  2 H  s                 24      0.482158  3 H  s          
    11      0.468016  1 C  px                28      0.420573  4 H  s          
    31     -0.420579  5 H  s                  7     -0.288351  1 C  px         

 Vector   17  Occ=0.000000D+00  E= 7.109169D-01
              MO Center= -7.1D-11, -1.2D-10, -1.6D-10, r^2= 3.2D+00
   Bfn.  Coefficient  Atom+Function         Bfn.  Coefficient  Atom+Function  
  ----- ------------  ---------------      ----- ------------  ---------------
    10      6.127720  1 C  s                  6     -1.744738  1 C  s          
    22     -0.768902  2 H  s                 25     -0.768902  3 H  s          
    28     -0.768902  4 H  s                 31     -0.768902  5 H  s          
    21     -0.708852  2 H  s                 24     -0.708852  3 H  s          
    27     -0.708852  4 H  s                 30     -0.708852  5 H  s          

 Vector   18  Occ=0.000000D+00  E= 1.263563D+00
              MO Center= -2.1D-11,  1.1D-11,  1.4D-18, r^2= 7.8D-01
   Bfn.  Coefficient  Atom+Function         Bfn.  Coefficient  Atom+Function  
  ----- ------------  ---------------      ----- ------------  ---------------
    15      1.732051  1 C  dxy        

 Vector   19  Occ=0.000000D+00  E= 1.263569D+00
              MO Center= -4.5D-12, -9.7D-12,  9.1D-12, r^2= 7.8D-01
   Bfn.  Coefficient  Atom+Function         Bfn.  Coefficient  Atom+Function  
  ----- ------------  ---------------      ----- ------------  ---------------
    19      1.000004  1 C  dzz               14     -0.499996  1 C  dxx        
    17     -0.499996  1 C  dyy        

 Vector   20  Occ=0.000000D+00  E= 1.533176D+00
              MO Center= -1.2D-07,  7.5D-07,  5.2D-11, r^2= 1.7D+00
   Bfn.  Coefficient  Atom+Function         Bfn.  Coefficient  Atom+Function  
  ----- ------------  ---------------      ----- ------------  ---------------
    21      0.939674  2 H  s                 24      0.939680  3 H  s          
    27     -0.939678  4 H  s                 30     -0.939677  5 H  s          
    14      0.931487  1 C  dxx               17     -0.931487  1 C  dyy        
    13      0.684839  1 C  pz                22     -0.238256  2 H  s          
    25     -0.238257  3 H  s                 28      0.238256  4 H  s          

 Vector   21  Occ=0.000000D+00  E= 1.533183D+00
              MO Center=  3.7D-07, -5.9D-07, -6.5D-02, r^2= 1.7D+00
   Bfn.  Coefficient  Atom+Function         Bfn.  Coefficient  Atom+Function  
  ----- ------------  ---------------      ----- ------------  ---------------
    18      1.577903  1 C  dyz               21     -1.125555  2 H  s          
    24      1.125550  3 H  s                 16     -0.990413  1 C  dxz        
    27     -0.706481  4 H  s                 30      0.706485  5 H  s          
    12     -0.580121  1 C  py                11     -0.364128  1 C  px         
    22      0.285333  2 H  s                 25     -0.285332  3 H  s          

 Vector   22  Occ=0.000000D+00  E= 1.533183D+00
              MO Center= -2.5D-07, -1.6D-07,  6.5D-02, r^2= 1.7D+00
   Bfn.  Coefficient  Atom+Function         Bfn.  Coefficient  Atom+Function  
  ----- ------------  ---------------      ----- ------------  ---------------
    16      1.577903  1 C  dxz               27      1.125554  4 H  s          
    30     -1.125552  5 H  s                 18      0.990413  1 C  dyz        
    21     -0.706484  2 H  s                 24      0.706482  3 H  s          
    11      0.580121  1 C  px                12     -0.364128  1 C  py         
    28     -0.285333  4 H  s                 31      0.285332  5 H  s          

 Vector   23  Occ=0.000000D+00  E= 2.195718D+00
              MO Center=  1.8D-10,  7.8D-12,  4.3D-10, r^2= 2.2D+00
   Bfn.  Coefficient  Atom+Function         Bfn.  Coefficient  Atom+Function  
  ----- ------------  ---------------      ----- ------------  ---------------
    21      1.294321  2 H  s                 24      1.294321  3 H  s          
    27      1.294321  4 H  s                 30      1.294321  5 H  s          
    10     -0.998770  1 C  s                 20     -0.712740  2 H  s          
    23     -0.712740  3 H  s                 26     -0.712740  4 H  s          
    29     -0.712740  5 H  s                  6      0.614340  1 C  s          

 Vector   24  Occ=0.000000D+00  E= 2.425653D+00
              MO Center=  5.4D-09,  7.4D-08, -3.4D-01, r^2= 1.5D+00
   Bfn.  Coefficient  Atom+Function         Bfn.  Coefficient  Atom+Function  
  ----- ------------  ---------------      ----- ------------  ---------------
    21      0.977670  2 H  s                 24     -0.977670  3 H  s          
     8      0.924119  1 C  py                20     -0.846986  2 H  s          
    23      0.846986  3 H  s                 22     -0.832696  2 H  s          
    25      0.832696  3 H  s                 18      0.791433  1 C  dyz        
     4     -0.753146  1 C  py                12     -0.654932  1 C  py         

 Vector   25  Occ=0.000000D+00  E= 2.425653D+00
              MO Center= -3.5D-07,  2.5D-08,  3.4D-01, r^2= 1.5D+00
   Bfn.  Coefficient  Atom+Function         Bfn.  Coefficient  Atom+Function  
  ----- ------------  ---------------      ----- ------------  ---------------
    27      0.977670  4 H  s                 30     -0.977670  5 H  s          
     7      0.924119  1 C  px                26     -0.846986  4 H  s          
    29      0.846986  5 H  s                 28     -0.832697  4 H  s          
    31      0.832696  5 H  s                 16     -0.791433  1 C  dxz        
     3     -0.753146  1 C  px                11     -0.654932  1 C  px         

 Vector   26  Occ=0.000000D+00  E= 2.425678D+00
              MO Center=  3.5D-07, -9.9D-08, -4.9D-10, r^2= 1.6D+00
   Bfn.  Coefficient  Atom+Function         Bfn.  Coefficient  Atom+Function  
  ----- ------------  ---------------      ----- ------------  ---------------
     9      0.926561  1 C  pz                 5     -0.755137  1 C  pz         
    21      0.693120  2 H  s                 24      0.693120  3 H  s          
    27     -0.693120  4 H  s                 30     -0.693121  5 H  s          
    13     -0.656659  1 C  pz                20     -0.600472  2 H  s          
    23     -0.600472  3 H  s                 26      0.600472  4 H  s          

 Vector   27  Occ=0.000000D+00  E= 3.110708D+00
              MO Center= -2.2D-08,  8.7D-07, -4.9D-10, r^2= 9.0D-01
   Bfn.  Coefficient  Atom+Function         Bfn.  Coefficient  Atom+Function  
  ----- ------------  ---------------      ----- ------------  ---------------
     9      1.493963  1 C  pz                 5     -1.138452  1 C  pz         
    13     -0.716870  1 C  pz                20      0.530885  2 H  s          
    23      0.530889  3 H  s                 26     -0.530887  4 H  s          
    29     -0.530887  5 H  s                 14      0.408105  1 C  dxx        
    17     -0.408105  1 C  dyy               21     -0.254839  2 H  s          

 Vector   28  Occ=0.000000D+00  E= 3.110722D+00
              MO Center=  2.8D-07, -9.4D-08,  1.6D-01, r^2= 8.8D-01
   Bfn.  Coefficient  Atom+Function         Bfn.  Coefficient  Atom+Function  
  ----- ------------  ---------------      ----- ------------  ---------------
     7      1.416907  1 C  px                 3     -1.079724  1 C  px         
    16      0.774051  1 C  dxz               26      0.712035  4 H  s          
    29     -0.712036  5 H  s                 11     -0.679914  1 C  px         
     8      0.473712  1 C  py                 4     -0.360982  1 C  py         
    27     -0.341788  4 H  s                 30      0.341788  5 H  s          

 Vector   29  Occ=0.000000D+00  E= 3.110722D+00
              MO Center= -2.6D-07, -7.8D-07, -1.6D-01, r^2= 8.8D-01
   Bfn.  Coefficient  Atom+Function         Bfn.  Coefficient  Atom+Function  
  ----- ------------  ---------------      ----- ------------  ---------------
     8      1.416907  1 C  py                 4     -1.079724  1 C  py         
    18     -0.774051  1 C  dyz               20      0.712037  2 H  s          
    23     -0.712035  3 H  s                 12     -0.679914  1 C  py         
     7     -0.473712  1 C  px                 3      0.360982  1 C  px         
    21     -0.341789  2 H  s                 24      0.341787  3 H  s          

 Vector   30  Occ=0.000000D+00  E= 3.147572D+00
              MO Center=  6.8D-10, -4.3D-10,  4.7D-10, r^2= 1.1D+00
   Bfn.  Coefficient  Atom+Function         Bfn.  Coefficient  Atom+Function  
  ----- ------------  ---------------      ----- ------------  ---------------
    10      3.534897  1 C  s                  6      1.848074  1 C  s          
    14     -1.545774  1 C  dxx               17     -1.545774  1 C  dyy        
    19     -1.545777  1 C  dzz                2     -0.606344  1 C  s          
    21     -0.520046  2 H  s                 24     -0.520046  3 H  s          
    27     -0.520046  4 H  s                 30     -0.520046  5 H  s          

 Vector   31  Occ=0.000000D+00  E= 2.651471D+01
              MO Center=  7.4D-15, -5.8D-14, -3.2D-14, r^2= 1.5D-01
   Bfn.  Coefficient  Atom+Function         Bfn.  Coefficient  Atom+Function  
  ----- ------------  ---------------      ----- ------------  ---------------
     2      2.560628  1 C  s                  1     -2.110444  1 C  s          
     6     -1.108352  1 C  s                 10     -0.927116  1 C  s          
    14      0.630969  1 C  dxx               17      0.630969  1 C  dyy        
    19      0.630969  1 C  dzz               22      0.120927  2 H  s          
    25      0.120927  3 H  s                 28      0.120927  4 H  s          


 center of mass
 --------------
 x =   0.00000000 y =   0.00000000 z =   0.00000000

 moments of inertia (a.u.)
 ------------------
          11.402642980214           0.000000000000           0.000000000000
           0.000000000000          11.402642980214           0.000000000000
           0.000000000000           0.000000000000          11.403096599168

     Multipole analysis of the density
     ---------------------------------

     L   x y z        total         alpha         beta         nuclear
     -   - - -        -----         -----         ----         -------
     0   0 0 0     -0.000000     -5.000000     -5.000000     10.000000

     1   1 0 0      0.000000      0.000000      0.000000      0.000000
     1   0 1 0     -0.000000     -0.000000     -0.000000      0.000000
     1   0 0 1     -0.000000     -0.000000     -0.000000      0.000000

     2   2 0 0     -6.243299     -5.950289     -5.950289      5.657280
     2   1 1 0     -0.000000     -0.000000     -0.000000      0.000000
     2   1 0 1     -0.000000     -0.000000     -0.000000      0.000000
     2   0 2 0     -6.243299     -5.950289     -5.950289      5.657280
     2   0 1 1      0.000000      0.000000      0.000000      0.000000
     2   0 0 2     -6.243454     -5.950142     -5.950142      5.656830


 Parallel integral file used       2 records with       0 large values


            General Information
            -------------------
          SCF calculation type: DFT
          Wavefunction type:  closed shell.
          No. of atoms     :     5
          No. of electrons :    10
           Alpha electrons :     5
            Beta electrons :     5
          Charge           :     0
          Spin multiplicity:     1
          Use of symmetry is: off; symmetry adaption is: off
          Maximum number of iterations: 100
          AO basis - number of functions:    31
                     number of shells:    20
          Convergence on energy requested:  1.00D-07
          Convergence on density requested:  1.00D-05
          Convergence on gradient requested:  5.00D-04

              XC Information
              --------------
                         PBE0 Method XC Functional
                     Hartree-Fock (Exact) Exchange  0.250          
          PerdewBurkeErnzerhof Exchange Functional  0.750          
            Perdew 1991 LDA Correlation Functional  1.000 local    
           PerdewBurkeErnz. Correlation Functional  1.000 non-local

             Grid Information
             ----------------
          Grid used for XC integration:  fine      
          Radial quadrature: Mura-Knowles        
          Angular quadrature: Lebedev. 
          Tag              B.-S. Rad. Rad. Pts. Rad. Cut. Ang. Pts.
          ---              ---------- --------- --------- ---------
          C                   0.70       70           7.0       590
          H                   0.35       60           8.0       590
          Grid pruning is: on 
          Number of quadrature shells:   310
          Spatial weights used:  Erf1

          Convergence Information
          -----------------------
          Convergence aids based upon iterative change in 
          total energy or number of iterations. 
          Levelshifting, if invoked, occurs when the 
          HOMO/LUMO gap drops below (HL_TOL):  1.00D-02
          DIIS, if invoked, will attempt to extrapolate 
          using up to (NFOCK): 10 stored Fock matrices.

                    Damping( 0%)  Levelshifting(0.5)       DIIS
                  --------------- ------------------- ---------------
          dE  on:    start            ASAP                start   
          dE off:    2 iters        100 iters           100 iters 


      Screening Tolerance Information
      -------------------------------
          Density screening/tol_rho:  1.00D-10
          AO Gaussian exp screening on grid/accAOfunc:  16
          CD Gaussian exp screening on grid/accCDfunc:  20
          XC Gaussian exp screening on grid/accXCfunc:  20
          Schwarz screening/accCoul:  1.00D-08



                            NWChem DFT Gradient Module
                            --------------------------


                 CH4 geometry optimization, PBE0/6-311G* Cartesian



  charge          =   0.00
  wavefunction    = closed shell



                         DFT ENERGY GRADIENTS

    atom               coordinates                        gradient
                 x          y          z           x          y          z
   1 C       0.000000   0.000000   0.000000    0.000000   0.000000  -0.000000
   2 H       0.000000  -1.681856  -1.189205   -0.000000   0.000330   0.000238
   3 H       0.000000   1.681856  -1.189205    0.000000  -0.000330   0.000238
   4 H      -1.681856   0.000000   1.189205    0.000330   0.000000  -0.000238
   5 H       1.681856   0.000000   1.189205   -0.000330  -0.000000  -0.000238

                 ----------------------------------------
                 |  Time  |  1-e(secs)   |  2-e(secs)   |
                 ----------------------------------------
                 |  CPU   |       0.00   |       0.04   |
                 ----------------------------------------
                 |  WALL  |       0.00   |       0.04   |
                 ----------------------------------------

@ Step       Energy      Delta E   Gmax     Grms     Xrms     Xmax   Walltime
@ ---- ---------------- -------- -------- -------- -------- -------- --------
@    0     -40.46553627  0.0D+00  0.00033  0.00021  0.00000  0.00000      1.3
                                     ok       ok       ok       ok  


                                 NWChem DFT Module
                                 -----------------


                 CH4 geometry optimization, PBE0/6-311G* Cartesian




 Summary of "ao basis" -> "ao basis" (cartesian)
 ------------------------------------------------------------------------------
       Tag                 Description            Shells   Functions and Types
 ---------------- ------------------------------  ------  ---------------------
 C                          6-311G*                  8       19   4s3p1d
 H                          6-311G*                  3        3   3s


  Caching 1-el integrals 

            General Information
            -------------------
          SCF calculation type: DFT
          Wavefunction type:  closed shell.
          No. of atoms     :     5
          No. of electrons :    10
           Alpha electrons :     5
            Beta electrons :     5
          Charge           :     0
          Spin multiplicity:     1
          Use of symmetry is: off; symmetry adaption is: off
          Maximum number of iterations: 100
          AO basis - number of functions:    31
                     number of shells:    20
          Convergence on energy requested:  1.00D-07
          Convergence on density requested:  1.00D-05
          Convergence on gradient requested:  5.00D-04

              XC Information
              --------------
                         PBE0 Method XC Functional
                     Hartree-Fock (Exact) Exchange  0.250          
          PerdewBurkeErnzerhof Exchange Functional  0.750          
            Perdew 1991 LDA Correlation Functional  1.000 local    
           PerdewBurkeErnz. Correlation Functional  1.000 non-local

             Grid Information
             ----------------
          Grid used for XC integration:  fine      
          Radial quadrature: Mura-Knowles        
          Angular quadrature: Lebedev. 
          Tag              B.-S. Rad. Rad. Pts. Rad. Cut. Ang. Pts.
          ---              ---------- --------- --------- ---------
          C                   0.70       70           7.0       590
          H                   0.35       60           8.0       590
          Grid pruning is: on 
          Number of quadrature shells:   310
          Spatial weights used:  Erf1

          Convergence Information
          -----------------------
          Convergence aids based upon iterative change in 
          total energy or number of iterations. 
          Levelshifting, if invoked, occurs when the 
          HOMO/LUMO gap drops below (HL_TOL):  1.00D-02
          DIIS, if invoked, will attempt to extrapolate 
          using up to (NFOCK): 10 stored Fock matrices.

                    Damping( 0%)  Levelshifting(0.5)       DIIS
                  --------------- ------------------- ---------------
          dE  on:    start            ASAP                start   
          dE off:    2 iters        100 iters           100 iters 


      Screening Tolerance Information
      -------------------------------
          Density screening/tol_rho:  1.00D-10
          AO Gaussian exp screening on grid/accAOfunc:  16
          CD Gaussian exp screening on grid/accCDfunc:  20
          XC Gaussian exp screening on grid/accXCfunc:  20
          Schwarz screening/accCoul:  1.00D-08


 Loading old vectors from job with title :

CH4 geometry optimization, PBE0/6-311G* Cartesian

   Time after variat. SCF:      1.3
   Time prior to 1st pass:      1.3
  avail0,avail1,avail0-avail1                 85617                85617                    0
  avail0,avail1,avail0-avail1                 85617                85617                    0
  avail0,avail1,avail0-avail1                 85617                85632                  -15
  avail0,avail1,avail0-avail1                 85617                85632                  -15

 Integral file          = /Users/bldrdge1/Downloads/repos/PlasMol/jobs/final/Step_1/ch4/ch4_opt.aoints.0
 Record size in doubles =  65536        No. of integs per rec  =  43688
 Max. records in memory =      6        Max. records in file   = 162671
 No. of bits per label  =      8        No. of bits per value  =     64


 #quartets = 2.216D+04 #integrals = 8.329D+04 #direct =  0.0% #cached =100.0%


 Grid_pts file          = /Users/bldrdge1/Downloads/repos/PlasMol/jobs/final/Step_1/ch4/ch4_opt.gridpts.0
 Record size in doubles =  12289        No. of grid_pts per rec  =   3070
 Max. records in memory =     67        Max. recs in file   =    867667


           Memory utilization after 1st SCF pass: 
           Heap Space remaining (MW):       80.70            80701372
          Stack Space remaining (MW):       81.92            81919660

   convergence    iter        energy       DeltaE   RMS-Dens  Diis-err    time
 ---------------- ----- ----------------- --------- --------- ---------  ------
 d= 0,ls=0.0,diis     1    -40.4655369850 -5.39D+01  2.47D-05  1.08D-06     1.5
 d= 0,ls=0.0,diis     2    -40.4655370152 -3.03D-08  1.39D-05  8.00D-07     1.6
 d= 0,ls=0.0,diis     3    -40.4655371113 -9.61D-08  1.55D-06  1.65D-08     1.8


         Total DFT energy =      -40.465537111310
      One electron energy =      -79.817248080113
           Coulomb energy =       32.761902702907
    Exchange-Corr. energy =       -6.840116991246
 Nuclear repulsion energy =       13.429925257143

 Numeric. integr. density =       10.000000243661

     Total iterative time =      0.5s



                       DFT Final Molecular Orbital Analysis
                       ------------------------------------

 Vector    1  Occ=2.000000D+00  E=-1.020419D+01
              MO Center= -7.1D-10, -1.6D-10, -4.6D-10, r^2= 2.8D-02
   Bfn.  Coefficient  Atom+Function         Bfn.  Coefficient  Atom+Function  
  ----- ------------  ---------------      ----- ------------  ---------------
     1      0.563906  1 C  s                  2      0.460072  1 C  s          

 Vector    2  Occ=2.000000D+00  E=-7.147559D-01
              MO Center=  4.4D-10,  2.0D-10,  2.0D-10, r^2= 1.0D+00
   Bfn.  Coefficient  Atom+Function         Bfn.  Coefficient  Atom+Function  
  ----- ------------  ---------------      ----- ------------  ---------------
     6      0.448970  1 C  s                 10      0.314302  1 C  s          
     2     -0.167701  1 C  s                  1     -0.108426  1 C  s          
    20      0.086234  2 H  s                 23      0.086234  3 H  s          
    26      0.086234  4 H  s                 29      0.086234  5 H  s          
    21      0.075316  2 H  s                 24      0.075316  3 H  s          

 Vector    3  Occ=2.000000D+00  E=-4.040219D-01
              MO Center= -3.6D-06, -5.6D-06, -1.2D-01, r^2= 1.3D+00
   Bfn.  Coefficient  Atom+Function         Bfn.  Coefficient  Atom+Function  
  ----- ------------  ---------------      ----- ------------  ---------------
     8      0.270273  1 C  py                12      0.188599  1 C  py         
     7     -0.173691  1 C  px                 4      0.165427  1 C  py         
    21     -0.155597  2 H  s                 24      0.155594  3 H  s          
    20     -0.123218  2 H  s                 23      0.123216  3 H  s          
    11     -0.121203  1 C  px                 3     -0.106312  1 C  px         

 Vector    4  Occ=2.000000D+00  E=-4.040219D-01
              MO Center= -5.3D-06,  3.4D-06,  1.2D-01, r^2= 1.3D+00
   Bfn.  Coefficient  Atom+Function         Bfn.  Coefficient  Atom+Function  
  ----- ------------  ---------------      ----- ------------  ---------------
     7      0.270273  1 C  px                11      0.188599  1 C  px         
     8      0.173691  1 C  py                 3      0.165427  1 C  px         
    27     -0.155597  4 H  s                 30      0.155594  5 H  s          
    26     -0.123218  4 H  s                 29      0.123216  5 H  s          
    12      0.121203  1 C  py                 4      0.106312  1 C  py         

 Vector    5  Occ=2.000000D+00  E=-4.039507D-01
              MO Center=  8.9D-06,  2.2D-06, -5.1D-10, r^2= 1.3D+00
   Bfn.  Coefficient  Atom+Function         Bfn.  Coefficient  Atom+Function  
  ----- ------------  ---------------      ----- ------------  ---------------
     9      0.321273  1 C  pz                13      0.224211  1 C  pz         
     5      0.196647  1 C  pz                21     -0.130794  2 H  s          
    24     -0.130796  3 H  s                 27      0.130792  4 H  s          
    30      0.130798  5 H  s                 20     -0.103564  2 H  s          
    23     -0.103565  3 H  s                 26      0.103562  4 H  s          

 Vector    6  Occ=0.000000D+00  E= 6.688993D-02
              MO Center= -6.7D-08, -1.5D-08,  5.6D-10, r^2= 5.1D+00
   Bfn.  Coefficient  Atom+Function         Bfn.  Coefficient  Atom+Function  
  ----- ------------  ---------------      ----- ------------  ---------------
    10      2.192720  1 C  s                 22     -0.762797  2 H  s          
    25     -0.762797  3 H  s                 28     -0.762798  4 H  s          
    31     -0.762797  5 H  s                  6      0.180659  1 C  s          
     2     -0.105338  1 C  s                  1     -0.059421  1 C  s          
    21     -0.047596  2 H  s                 24     -0.047596  3 H  s          

 Vector    7  Occ=0.000000D+00  E= 1.393835D-01
              MO Center=  4.9D-03,  1.2D-03,  6.3D-06, r^2= 5.1D+00
   Bfn.  Coefficient  Atom+Function         Bfn.  Coefficient  Atom+Function  
  ----- ------------  ---------------      ----- ------------  ---------------
    22      1.238571  2 H  s                 25      1.241013  3 H  s          
    31     -1.244623  5 H  s                 28     -1.234961  4 H  s          
    13      1.164981  1 C  pz                 9      0.215073  1 C  pz         
     5      0.160276  1 C  pz                21      0.041978  2 H  s          
    24      0.042061  3 H  s                 30     -0.042183  5 H  s          

 Vector    8  Occ=0.000000D+00  E= 1.393855D-01
              MO Center= -1.8D-03,  1.8D-03, -1.2D-03, r^2= 5.1D+00
   Bfn.  Coefficient  Atom+Function         Bfn.  Coefficient  Atom+Function  
  ----- ------------  ---------------      ----- ------------  ---------------
    22      1.238886  2 H  s                 25     -1.242492  3 H  s          
    28      1.240738  4 H  s                 31     -1.237133  5 H  s          
    11      0.823200  1 C  px                12      0.824365  1 C  py         
     7      0.151961  1 C  px                 8      0.152176  1 C  py         
     3      0.113245  1 C  px                 4      0.113405  1 C  py         

 Vector    9  Occ=0.000000D+00  E= 1.393855D-01
              MO Center= -3.0D-03, -3.0D-03,  1.2D-03, r^2= 5.1D+00
   Bfn.  Coefficient  Atom+Function         Bfn.  Coefficient  Atom+Function  
  ----- ------------  ---------------      ----- ------------  ---------------
    22      1.241965  2 H  s                 28     -1.243709  4 H  s          
    25     -1.235910  3 H  s                 31      1.237655  5 H  s          
    11     -0.824360  1 C  px                12      0.823201  1 C  py         
     7     -0.152176  1 C  px                 8      0.151962  1 C  py         
     3     -0.113405  1 C  px                 4      0.113245  1 C  py         

 Vector   10  Occ=0.000000D+00  E= 2.945005D-01
              MO Center= -2.2D-05, -5.5D-06, -4.3D-09, r^2= 3.0D+00
   Bfn.  Coefficient  Atom+Function         Bfn.  Coefficient  Atom+Function  
  ----- ------------  ---------------      ----- ------------  ---------------
    13      1.331247  1 C  pz                21      0.740847  2 H  s          
    24      0.740881  3 H  s                 27     -0.740795  4 H  s          
    30     -0.740933  5 H  s                 22     -0.215674  2 H  s          
    25     -0.215684  3 H  s                 28      0.215659  4 H  s          
    31      0.215700  5 H  s                 20      0.053253  2 H  s          

 Vector   11  Occ=0.000000D+00  E= 2.945578D-01
              MO Center=  9.0D-06, -8.5D-06, -1.0D-02, r^2= 3.0D+00
   Bfn.  Coefficient  Atom+Function         Bfn.  Coefficient  Atom+Function  
  ----- ------------  ---------------      ----- ------------  ---------------
    11      0.970559  1 C  px                12      0.912759  1 C  py         
    27      0.763450  4 H  s                 30     -0.763395  5 H  s          
    21      0.717931  2 H  s                 24     -0.717986  3 H  s          
    28     -0.221505  4 H  s                 31      0.221489  5 H  s          
    22     -0.208298  2 H  s                 25      0.208314  3 H  s          

 Vector   12  Occ=0.000000D+00  E= 2.945578D-01
              MO Center=  1.3D-05,  1.4D-05,  1.0D-02, r^2= 3.0D+00
   Bfn.  Coefficient  Atom+Function         Bfn.  Coefficient  Atom+Function  
  ----- ------------  ---------------      ----- ------------  ---------------
    12     -0.970559  1 C  py                11      0.912759  1 C  px         
    21     -0.763465  2 H  s                 24      0.763380  3 H  s          
    27      0.718001  4 H  s                 30     -0.717916  5 H  s          
    22      0.221509  2 H  s                 25     -0.221484  3 H  s          
    28     -0.208318  4 H  s                 31      0.208294  5 H  s          

 Vector   13  Occ=0.000000D+00  E= 5.497528D-01
              MO Center=  3.9D-08,  9.6D-09, -4.0D-10, r^2= 2.7D+00
   Bfn.  Coefficient  Atom+Function         Bfn.  Coefficient  Atom+Function  
  ----- ------------  ---------------      ----- ------------  ---------------
    21      1.061714  2 H  s                 24      1.061714  3 H  s          
    27      1.061714  4 H  s                 30      1.061714  5 H  s          
    10     -0.731148  1 C  s                  6     -0.702012  1 C  s          
    22     -0.363452  2 H  s                 25     -0.363452  3 H  s          
    28     -0.363452  4 H  s                 31     -0.363452  5 H  s          

 Vector   14  Occ=0.000000D+00  E= 6.145850D-01
              MO Center=  6.0D-05,  1.5D-05,  5.0D-09, r^2= 2.9D+00
   Bfn.  Coefficient  Atom+Function         Bfn.  Coefficient  Atom+Function  
  ----- ------------  ---------------      ----- ------------  ---------------
    13      1.752550  1 C  pz                22      1.113036  2 H  s          
    25      1.113112  3 H  s                 28     -1.112920  4 H  s          
    31     -1.113228  5 H  s                  9     -1.079459  1 C  pz         
    21     -0.353303  2 H  s                 24     -0.353327  3 H  s          
    27      0.353266  4 H  s                 30      0.353364  5 H  s          

 Vector   15  Occ=0.000000D+00  E= 6.146086D-01
              MO Center= -2.3D-05,  2.3D-05, -2.5D-04, r^2= 2.9D+00
   Bfn.  Coefficient  Atom+Function         Bfn.  Coefficient  Atom+Function  
  ----- ------------  ---------------      ----- ------------  ---------------
    11      1.238823  1 C  px                12      1.239850  1 C  py         
    22      1.113446  2 H  s                 25     -1.113562  3 H  s          
    28      1.112640  4 H  s                 31     -1.112524  5 H  s          
     7     -0.763022  1 C  px                 8     -0.763655  1 C  py         
    21     -0.353466  2 H  s                 24      0.353503  3 H  s          

 Vector   16  Occ=0.000000D+00  E= 6.146086D-01
              MO Center= -3.7D-05, -3.7D-05,  2.5D-04, r^2= 2.9D+00
   Bfn.  Coefficient  Atom+Function         Bfn.  Coefficient  Atom+Function  
  ----- ------------  ---------------      ----- ------------  ---------------
    11      1.239850  1 C  px                12     -1.238823  1 C  py         
    22     -1.112678  2 H  s                 25      1.112486  3 H  s          
    28      1.113600  4 H  s                 31     -1.113408  5 H  s          
     7     -0.763655  1 C  px                 8      0.763022  1 C  py         
    21      0.353222  2 H  s                 24     -0.353161  3 H  s          

 Vector   17  Occ=0.000000D+00  E= 7.109166D-01
              MO Center=  6.3D-08,  1.5D-08, -1.7D-10, r^2= 3.2D+00
   Bfn.  Coefficient  Atom+Function         Bfn.  Coefficient  Atom+Function  
  ----- ------------  ---------------      ----- ------------  ---------------
    10      6.123841  1 C  s                  6     -1.744998  1 C  s          
    22     -0.768334  2 H  s                 25     -0.768334  3 H  s          
    28     -0.768334  4 H  s                 31     -0.768334  5 H  s          
    21     -0.708237  2 H  s                 24     -0.708237  3 H  s          
    27     -0.708237  4 H  s                 30     -0.708237  5 H  s          

 Vector   18  Occ=0.000000D+00  E= 1.263632D+00
              MO Center= -4.2D-10, -7.4D-11, -4.6D-10, r^2= 7.8D-01
   Bfn.  Coefficient  Atom+Function         Bfn.  Coefficient  Atom+Function  
  ----- ------------  ---------------      ----- ------------  ---------------
    15      1.732051  1 C  dxy        

 Vector   19  Occ=0.000000D+00  E= 1.263670D+00
              MO Center= -7.3D-10, -1.7D-10, -4.6D-10, r^2= 7.8D-01
   Bfn.  Coefficient  Atom+Function         Bfn.  Coefficient  Atom+Function  
  ----- ------------  ---------------      ----- ------------  ---------------
    19      1.000025  1 C  dzz               14     -0.499975  1 C  dxx        
    17     -0.499975  1 C  dyy        

 Vector   20  Occ=0.000000D+00  E= 1.533175D+00
              MO Center=  7.9D-06,  2.1D-06, -1.0D-09, r^2= 1.7D+00
   Bfn.  Coefficient  Atom+Function         Bfn.  Coefficient  Atom+Function  
  ----- ------------  ---------------      ----- ------------  ---------------
    21      0.939236  2 H  s                 24      0.939254  3 H  s          
    27     -0.939210  4 H  s                 30     -0.939280  5 H  s          
    14      0.931537  1 C  dxx               17     -0.931537  1 C  dyy        
    13      0.683983  1 C  pz                22     -0.238560  2 H  s          
    25     -0.238565  3 H  s                 28      0.238554  4 H  s          

 Vector   21  Occ=0.000000D+00  E= 1.533220D+00
              MO Center= -2.9D-06,  2.9D-06, -7.2D-05, r^2= 1.7D+00
   Bfn.  Coefficient  Atom+Function         Bfn.  Coefficient  Atom+Function  
  ----- ------------  ---------------      ----- ------------  ---------------
    16      1.317104  1 C  dxz               18     -1.317743  1 C  dyz        
    21      0.939461  2 H  s                 24     -0.939487  3 H  s          
    27      0.939032  4 H  s                 30     -0.939006  5 H  s          
    11      0.483962  1 C  px                12      0.484197  1 C  py         
    22     -0.238325  2 H  s                 25      0.238331  3 H  s          

 Vector   22  Occ=0.000000D+00  E= 1.533220D+00
              MO Center= -5.0D-06, -5.0D-06,  7.2D-05, r^2= 1.7D+00
   Bfn.  Coefficient  Atom+Function         Bfn.  Coefficient  Atom+Function  
  ----- ------------  ---------------      ----- ------------  ---------------
    16      1.317743  1 C  dxz               18      1.317104  1 C  dyz        
    21     -0.939041  2 H  s                 24      0.938996  3 H  s          
    27      0.939496  4 H  s                 30     -0.939452  5 H  s          
    11      0.484197  1 C  px                12     -0.483962  1 C  py         
    22      0.238218  2 H  s                 25     -0.238207  3 H  s          

 Vector   23  Occ=0.000000D+00  E= 2.195469D+00
              MO Center=  6.3D-09,  1.4D-09,  1.6D-09, r^2= 2.2D+00
   Bfn.  Coefficient  Atom+Function         Bfn.  Coefficient  Atom+Function  
  ----- ------------  ---------------      ----- ------------  ---------------
    21      1.293848  2 H  s                 24      1.293848  3 H  s          
    27      1.293848  4 H  s                 30      1.293848  5 H  s          
    10     -0.995309  1 C  s                 20     -0.712716  2 H  s          
    23     -0.712716  3 H  s                 26     -0.712716  4 H  s          
    29     -0.712716  5 H  s                  6      0.614365  1 C  s          

 Vector   24  Occ=0.000000D+00  E= 2.425212D+00
              MO Center= -4.6D-07, -2.1D-06, -3.1D-01, r^2= 1.5D+00
   Bfn.  Coefficient  Atom+Function         Bfn.  Coefficient  Atom+Function  
  ----- ------------  ---------------      ----- ------------  ---------------
    21      0.957307  2 H  s                 24     -0.957302  3 H  s          
     8      0.904159  1 C  py                20     -0.829177  2 H  s          
    23      0.829173  3 H  s                 22     -0.814794  2 H  s          
    25      0.814790  3 H  s                 18      0.773995  1 C  dyz        
     4     -0.736469  1 C  py                12     -0.640602  1 C  py         

 Vector   25  Occ=0.000000D+00  E= 2.425212D+00
              MO Center= -3.9D-06,  8.7D-07,  3.1D-01, r^2= 1.5D+00
   Bfn.  Coefficient  Atom+Function         Bfn.  Coefficient  Atom+Function  
  ----- ------------  ---------------      ----- ------------  ---------------
    27      0.957309  4 H  s                 30     -0.957300  5 H  s          
     7      0.904159  1 C  px                26     -0.829179  4 H  s          
    29      0.829172  5 H  s                 28     -0.814796  4 H  s          
    31      0.814789  5 H  s                 16     -0.773995  1 C  dxz        
     3     -0.736469  1 C  px                11     -0.640602  1 C  px         

 Vector   26  Occ=0.000000D+00  E= 2.425380D+00
              MO Center=  4.4D-06,  1.2D-06, -1.3D-09, r^2= 1.6D+00
   Bfn.  Coefficient  Atom+Function         Bfn.  Coefficient  Atom+Function  
  ----- ------------  ---------------      ----- ------------  ---------------
     9      0.926472  1 C  pz                 5     -0.754650  1 C  pz         
    21      0.693463  2 H  s                 24      0.693466  3 H  s          
    27     -0.693459  4 H  s                 30     -0.693471  5 H  s          
    13     -0.656389  1 C  pz                20     -0.600648  2 H  s          
    23     -0.600651  3 H  s                 26      0.600645  4 H  s          

 Vector   27  Occ=0.000000D+00  E= 3.109924D+00
              MO Center=  1.8D-06,  3.3D-07, -5.6D-09, r^2= 9.0D-01
   Bfn.  Coefficient  Atom+Function         Bfn.  Coefficient  Atom+Function  
  ----- ------------  ---------------      ----- ------------  ---------------
     9      1.493364  1 C  pz                 5     -1.138662  1 C  pz         
    13     -0.716876  1 C  pz                20      0.530425  2 H  s          
    23      0.530426  3 H  s                 26     -0.530422  4 H  s          
    29     -0.530429  5 H  s                 14      0.407359  1 C  dxx        
    17     -0.407359  1 C  dyy               21     -0.254987  2 H  s          

 Vector   28  Occ=0.000000D+00  E= 3.110014D+00
              MO Center= -5.2D-07,  6.6D-07, -4.8D-02, r^2= 9.0D-01
   Bfn.  Coefficient  Atom+Function         Bfn.  Coefficient  Atom+Function  
  ----- ------------  ---------------      ----- ------------  ---------------
     8      1.178830  1 C  py                 7      0.917157  1 C  px         
     4     -0.898791  1 C  py                 3     -0.699280  1 C  px         
    18     -0.642785  1 C  dyz               20      0.591986  2 H  s          
    23     -0.591989  3 H  s                 12     -0.565992  1 C  py         
    16      0.500101  1 C  dxz               26      0.460581  4 H  s          

 Vector   29  Occ=0.000000D+00  E= 3.110014D+00
              MO Center= -1.3D-06, -9.9D-07,  4.8D-02, r^2= 9.0D-01
   Bfn.  Coefficient  Atom+Function         Bfn.  Coefficient  Atom+Function  
  ----- ------------  ---------------      ----- ------------  ---------------
     7      1.178830  1 C  px                 8     -0.917157  1 C  py         
     3     -0.898791  1 C  px                 4      0.699280  1 C  py         
    16      0.642785  1 C  dxz               26      0.591990  4 H  s          
    29     -0.591985  5 H  s                 11     -0.565992  1 C  px         
    18      0.500101  1 C  dyz               20     -0.460582  2 H  s          

 Vector   30  Occ=0.000000D+00  E= 3.147455D+00
              MO Center=  9.5D-09,  2.1D-09,  5.2D-09, r^2= 1.1D+00
   Bfn.  Coefficient  Atom+Function         Bfn.  Coefficient  Atom+Function  
  ----- ------------  ---------------      ----- ------------  ---------------
    10      3.532684  1 C  s                  6      1.848142  1 C  s          
    14     -1.545525  1 C  dxx               17     -1.545525  1 C  dyy        
    19     -1.545542  1 C  dzz                2     -0.606329  1 C  s          
    21     -0.519984  2 H  s                 24     -0.519984  3 H  s          
    27     -0.519984  4 H  s                 30     -0.519984  5 H  s          

 Vector   31  Occ=0.000000D+00  E= 2.651446D+01
              MO Center= -7.0D-10, -1.6D-10, -4.5D-10, r^2= 1.5D-01
   Bfn.  Coefficient  Atom+Function         Bfn.  Coefficient  Atom+Function  
  ----- ------------  ---------------      ----- ------------  ---------------
     2      2.560616  1 C  s                  1     -2.110440  1 C  s          
     6     -1.108363  1 C  s                 10     -0.926797  1 C  s          
    14      0.630917  1 C  dxx               17      0.630917  1 C  dyy        
    19      0.630917  1 C  dzz               22      0.120852  2 H  s          
    25      0.120852  3 H  s                 28      0.120852  4 H  s          


 center of mass
 --------------
 x =  -0.00000000 y =  -0.00000000 z =  -0.00000000

 moments of inertia (a.u.)
 ------------------
          11.410889294838           0.000000001682           0.000000005350
           0.000000001682          11.410889280152          -0.000000001727
           0.000000005350          -0.000000001727          11.413917354696

     Multipole analysis of the density
     ---------------------------------

     L   x y z        total         alpha         beta         nuclear
     -   - - -        -----         -----         ----         -------
     0   0 0 0     -0.000000     -5.000000     -5.000000     10.000000

     1   1 0 0     -0.000000      0.000000      0.000000     -0.000000
     1   0 1 0     -0.000000     -0.000000     -0.000000     -0.000000
     1   0 0 1      0.000000      0.000000      0.000000     -0.000000

     2   2 0 0     -6.243923     -5.953286     -5.953286      5.662648
     2   1 1 0     -0.000000      0.000000      0.000000     -0.000000
     2   1 0 1     -0.000000     -0.000000     -0.000000     -0.000000
     2   0 2 0     -6.243923     -5.953286     -5.953286      5.662648
     2   0 1 1      0.000000      0.000000      0.000000      0.000000
     2   0 0 2     -6.244961     -5.952303     -5.952303      5.659644


 Parallel integral file used       2 records with       0 large values

 Line search: 
     step= 1.00 grad=-1.3D-06 hess= 4.9D-07 energy=    -40.465537 mode=accept  
 new step= 1.00                   predicted energy=    -40.465537

          --------
          Step   1
          --------


                         Geometry "geometry" -> "geometry"
                         ---------------------------------

 Output coordinates in angstroms (scale by  1.889725989 to convert to a.u.)

  No.       Tag          Charge          X              Y              Z
 ---- ---------------- ---------- -------------- -------------- --------------
    1 C                    6.0000    -0.00000000    -0.00000000    -0.00000000
    2 H                    1.0000     0.00000000    -0.89042217    -0.62945650
    3 H                    1.0000     0.00000000     0.89042217    -0.62945650
    4 H                    1.0000    -0.89042217     0.00000000     0.62945650
    5 H                    1.0000     0.89042217     0.00000000     0.62945650

      Atomic Mass 
      ----------- 

      C                 12.000000
      H                  1.007825


 Effective nuclear repulsion energy (a.u.)      13.4299252571

            Nuclear Dipole moment (a.u.) 
            ----------------------------
        X                 Y               Z
 ---------------- ---------------- ----------------
    -0.0000000067    -0.0000000015    -0.0000000043


                                 NWChem DFT Module
                                 -----------------


                 CH4 geometry optimization, PBE0/6-311G* Cartesian




 Summary of "ao basis" -> "ao basis" (cartesian)
 ------------------------------------------------------------------------------
       Tag                 Description            Shells   Functions and Types
 ---------------- ------------------------------  ------  ---------------------
 C                          6-311G*                  8       19   4s3p1d
 H                          6-311G*                  3        3   3s



  The DFT is already converged 

         Total DFT energy =    -40.465537111310


            General Information
            -------------------
          SCF calculation type: DFT
          Wavefunction type:  closed shell.
          No. of atoms     :     5
          No. of electrons :    10
           Alpha electrons :     5
            Beta electrons :     5
          Charge           :     0
          Spin multiplicity:     1
          Use of symmetry is: off; symmetry adaption is: off
          Maximum number of iterations: 100
          AO basis - number of functions:    31
                     number of shells:    20
          Convergence on energy requested:  1.00D-07
          Convergence on density requested:  1.00D-05
          Convergence on gradient requested:  5.00D-04

              XC Information
              --------------
                         PBE0 Method XC Functional
                     Hartree-Fock (Exact) Exchange  0.250          
          PerdewBurkeErnzerhof Exchange Functional  0.750          
            Perdew 1991 LDA Correlation Functional  1.000 local    
           PerdewBurkeErnz. Correlation Functional  1.000 non-local

             Grid Information
             ----------------
          Grid used for XC integration:  fine      
          Radial quadrature: Mura-Knowles        
          Angular quadrature: Lebedev. 
          Tag              B.-S. Rad. Rad. Pts. Rad. Cut. Ang. Pts.
          ---              ---------- --------- --------- ---------
          C                   0.70       70           7.0       590
          H                   0.35       60           8.0       590
          Grid pruning is: on 
          Number of quadrature shells:   310
          Spatial weights used:  Erf1

          Convergence Information
          -----------------------
          Convergence aids based upon iterative change in 
          total energy or number of iterations. 
          Levelshifting, if invoked, occurs when the 
          HOMO/LUMO gap drops below (HL_TOL):  1.00D-02
          DIIS, if invoked, will attempt to extrapolate 
          using up to (NFOCK): 10 stored Fock matrices.

                    Damping( 0%)  Levelshifting(0.5)       DIIS
                  --------------- ------------------- ---------------
          dE  on:    start            ASAP                start   
          dE off:    2 iters        100 iters           100 iters 


      Screening Tolerance Information
      -------------------------------
          Density screening/tol_rho:  1.00D-10
          AO Gaussian exp screening on grid/accAOfunc:  16
          CD Gaussian exp screening on grid/accCDfunc:  20
          XC Gaussian exp screening on grid/accXCfunc:  20
          Schwarz screening/accCoul:  1.00D-08



                            NWChem DFT Gradient Module
                            --------------------------


                 CH4 geometry optimization, PBE0/6-311G* Cartesian



  charge          =   0.00
  wavefunction    = closed shell



                         DFT ENERGY GRADIENTS

    atom               coordinates                        gradient
                 x          y          z           x          y          z
   1 C      -0.000000  -0.000000  -0.000000    0.000000  -0.000000  -0.000000
   2 H       0.000000  -1.682654  -1.189500   -0.000000   0.000078   0.000086
   3 H       0.000000   1.682654  -1.189500   -0.000000  -0.000078   0.000086
   4 H      -1.682654   0.000000   1.189500    0.000078   0.000000  -0.000086
   5 H       1.682654   0.000000   1.189500   -0.000078  -0.000000  -0.000086

                 ----------------------------------------
                 |  Time  |  1-e(secs)   |  2-e(secs)   |
                 ----------------------------------------
                 |  CPU   |       0.00   |       0.04   |
                 ----------------------------------------
                 |  WALL  |       0.00   |       0.04   |
                 ----------------------------------------

  Step       Energy      Delta E   Gmax     Grms     Xrms     Xmax   Walltime
  ---- ---------------- -------- -------- -------- -------- -------- --------
@    1     -40.46553711 -8.4D-07  0.00009  0.00006  0.00044  0.00080      2.0
                                     ok       ok       ok       ok  


      ----------------------
      Optimization converged
      ----------------------


  Step       Energy      Delta E   Gmax     Grms     Xrms     Xmax   Walltime
  ---- ---------------- -------- -------- -------- -------- -------- --------
@    1     -40.46553711 -8.4D-07  0.00009  0.00006  0.00044  0.00080      2.0
                                     ok       ok       ok       ok  



                         Geometry "geometry" -> "geometry"
                         ---------------------------------

 Output coordinates in angstroms (scale by  1.889725989 to convert to a.u.)

  No.       Tag          Charge          X              Y              Z
 ---- ---------------- ---------- -------------- -------------- --------------
    1 C                    6.0000    -0.00000000    -0.00000000    -0.00000000
    2 H                    1.0000     0.00000000    -0.89042217    -0.62945650
    3 H                    1.0000     0.00000000     0.89042217    -0.62945650
    4 H                    1.0000    -0.89042217     0.00000000     0.62945650
    5 H                    1.0000     0.89042217     0.00000000     0.62945650

      Atomic Mass 
      ----------- 

      C                 12.000000
      H                  1.007825


 Effective nuclear repulsion energy (a.u.)      13.4299252571

            Nuclear Dipole moment (a.u.) 
            ----------------------------
        X                 Y               Z
 ---------------- ---------------- ----------------
    -0.0000000067    -0.0000000015    -0.0000000043

 ==============================================================================
                                internuclear distances
 ------------------------------------------------------------------------------
       center one      |      center two      | atomic units |  angstroms
 ------------------------------------------------------------------------------
    2 H                |   1 C                |     2.06064  |     1.09044
    3 H                |   1 C                |     2.06064  |     1.09044
    4 H                |   1 C                |     2.06064  |     1.09044
    5 H                |   1 C                |     2.06064  |     1.09044
 ------------------------------------------------------------------------------
                         number of included internuclear distances:          4
 ==============================================================================



 ==============================================================================
                                 internuclear angles
 ------------------------------------------------------------------------------
        center 1       |       center 2       |       center 3       |  degrees
 ------------------------------------------------------------------------------
    2 H                |   1 C                |   3 H                |   109.49
    2 H                |   1 C                |   4 H                |   109.46
    2 H                |   1 C                |   5 H                |   109.46
    3 H                |   1 C                |   4 H                |   109.46
    3 H                |   1 C                |   5 H                |   109.46
    4 H                |   1 C                |   5 H                |   109.49
 ------------------------------------------------------------------------------
                            number of included internuclear angles:          6
 ==============================================================================




 Task  times  cpu:        2.0s     wall:        2.0s
 Summary of allocated global arrays
-----------------------------------
  No active global arrays


MA_summarize_allocated_blocks: starting scan ...
MA_summarize_allocated_blocks: scan completed: 0 heap blocks, 0 stack blocks
MA usage statistics:

	allocation statistics:
					      heap	     stack
					      ----	     -----
	current number of blocks	         0	         0
	maximum number of blocks	        23	        58
	current total bytes		         0	         0
	maximum total bytes		   9748848	  22511464
	maximum total K-bytes		      9749	     22512
	maximum total M-bytes		        10	        23


                                NWChem Input Module
                                -------------------




                                     CITATION
                                     --------
                Please cite the following reference when publishing
                           results obtained with NWChem:

          E. Apra, E. J. Bylaska, W. A. de Jong, N. Govind, K. Kowalski,
       T. P. Straatsma, M. Valiev, H. J. J. van Dam, Y. Alexeev, J. Anchell,
       V. Anisimov, F. W. Aquino, R. Atta-Fynn, J. Autschbach, N. P. Bauman,
     J. C. Becca, D. E. Bernholdt, K. Bhaskaran-Nair, S. Bogatko, P. Borowski,
         J. Boschen, J. Brabec, A. Bruner, E. Cauet, Y. Chen, G. N. Chuev,
      C. J. Cramer, J. Daily, M. J. O. Deegan, T. H. Dunning Jr., M. Dupuis,
   K. G. Dyall, G. I. Fann, S. A. Fischer, A. Fonari, H. Fruchtl, L. Gagliardi,
      J. Garza, N. Gawande, S. Ghosh, K. Glaesemann, A. W. Gotz, J. Hammond,
       V. Helms, E. D. Hermes, K. Hirao, S. Hirata, M. Jacquelin, L. Jensen,
   B. G. Johnson, H. Jonsson, R. A. Kendall, M. Klemm, R. Kobayashi, V. Konkov,
      S. Krishnamoorthy, M. Krishnan, Z. Lin, R. D. Lins, R. J. Littlefield,
      A. J. Logsdail, K. Lopata, W. Ma, A. V. Marenich, J. Martin del Campo,
   D. Mejia-Rodriguez, J. E. Moore, J. M. Mullin, T. Nakajima, D. R. Nascimento,
    J. A. Nichols, P. J. Nichols, J. Nieplocha, A. Otero-de-la-Roza, B. Palmer,
    A. Panyala, T. Pirojsirikul, B. Peng, R. Peverati, J. Pittner, L. Pollack,
   R. M. Richard, P. Sadayappan, G. C. Schatz, W. A. Shelton, D. W. Silverstein,
   D. M. A. Smith, T. A. Soares, D. Song, M. Swart, H. L. Taylor, G. S. Thomas,
            V. Tipparaju, D. G. Truhlar, K. Tsemekhman, T. Van Voorhis,
      A. Vazquez-Mayagoitia, P. Verma, O. Villa, A. Vishnu, K. D. Vogiatzis,
        D. Wang, J. H. Weare, M. J. Williamson, T. L. Windus, K. Wolinski,
        A. T. Wong, Q. Wu, C. Yang, Q. Yu, M. Zacharias, Z. Zhang, Y. Zhao,
                                and R. J. Harrison
                        "NWChem: Past, present, and future
                         J. Chem. Phys. 152, 184102 (2020)
                               doi:10.1063/5.0004997

                                      AUTHORS
                                      -------
  E. Apra, E. J. Bylaska, N. Govind, K. Kowalski, M. Valiev, D. Mejia-Rodriguez,
       A. Kunitsa, N. P. Bauman, A. Panyala, W. A. de Jong, T. P. Straatsma,
   H. J. J. van Dam, D. Wang, T. L. Windus, J. Hammond, J. Autschbach, A. Woods,
    K. Bhaskaran-Nair, J. Brabec, K. Lopata, S. A. Fischer, S. Krishnamoorthy,
     M. Jacquelin, W. Ma, M. Klemm, O. Villa, Y. Chen, V. Anisimov, F. Aquino,
     S. Hirata, M. T. Hackler, E. Hermes, L. Jensen, J. E. Moore, J. C. Becca,
      V. Konjkov, T. Risthaus, M. Malagoli, A. Marenich, A. Otero-de-la-Roza,
        J. Mullin, P. Nichols, R. Peverati, J. Pittner, Y. Zhao, P.-D. Fan,
        A. Fonari, M. J. Williamson, R. J. Harrison, J. R. Rehr, M. Dupuis,
     D. Silverstein, D. M. A. Smith, J. Nieplocha, V. Tipparaju, M. Krishnan,
     B. E. Van Kuiken, A. Vazquez-Mayagoitia, M. Swart, Q. Wu, T. Van Voorhis,
     A. A. Auer, M. Nooijen, L. D. Crosby, E. Brown, G. Cisneros, G. I. Fann,
   H. Fruchtl, J. Garza, K. Hirao, R. A. Kendall, J. A. Nichols, K. Tsemekhman,
    K. Wolinski, J. Anchell, D. E. Bernholdt, P. Borowski, T. Clark, D. Clerc,
   H. Dachsel, M. J. O. Deegan, K. Dyall, D. Elwood, E. Glendening, M. Gutowski,
   A. C. Hess, J. Jaffe, B. G. Johnson, J. Ju, R. Kobayashi, R. Kutteh, Z. Lin,
   R. Littlefield, X. Long, B. Meng, T. Nakajima, S. Niu, L. Pollack, M. Rosing,
   K. Glaesemann, G. Sandrone, M. Stave, H. Taylor, G. Thomas, J. H. van Lenthe,
                               A. T. Wong, Z. Zhang.

 Total times  cpu:        2.1s     wall:        2.1s
